 DBCSR| CPU Multiplication driver                                           XSMM (U)
 DBCSR| Multrec recursion limit                                              512 (U)
 DBCSR| Multiplication stack size                                           1000 (D)
 DBCSR| Maximum elements for images                                    UNLIMITED (U)
 DBCSR| Multiplicative factor virtual images                                   1 (U)
 DBCSR| Use multiplication densification                                       T (D)
 DBCSR| Multiplication size stacks                                             3 (U)
 DBCSR| Use memory pool for CPU allocation                                     F (U)
 DBCSR| Number of 3D layers                                               SINGLE (U)
 DBCSR| Use MPI memory allocation                                              F (U)
 DBCSR| Use RMA algorithm                                                      F (U)
 DBCSR| Use Communication thread                                               T (U)
 DBCSR| Communication thread load                                             60 (D)
 DBCSR| MPI: My process id                                                     0
 DBCSR| MPI: Number of processes                                              64
 DBCSR| OMP: Current number of threads                                         8
 DBCSR| OMP: Max number of threads                                             8
 DBCSR| Split modifier for TAS multiplication algorithm                  1.0E+00 (U)


  **** **** ******  **  PROGRAM STARTED AT               2026-08-31 15:51:37.039
 ***** ** ***  *** **   PROGRAM STARTED ON                             nid004599
 **    ****   ******    PROGRAM STARTED BY                                agne_r
 ***** **    ** ** **   PROGRAM PROCESS ID                                 91769
  **** **  *******  **  PROGRAM STARTED IN /mnt/lustre/a2fs-work3/work/e89/e89/a
                                           gne_r/Crystalline_HfO2_Interfaces/Cla
                                           ude/HfO2_STO_interfaces/V4_lattice_ma
                                           tches/updated/V4_lattice_matches/STO_
                                           HfO2_m111_pbesol_matches/configs/m07_
                                           A0350_eps0p5

 CP2K| version string:                                       CP2K version 2024.3
 CP2K| source code revision number:                                  git:6712648
 CP2K| cp2kflags: omp libint fftw3 libxc libgrpp elpa parallel scalapack cosma x
 CP2K|            smm plumed2 spglib mkl sirius libvori libbqb libvdwxc hdf5
 CP2K| is freely available from                            https://www.cp2k.org/
 CP2K| Program compiled at                       Thu 12 Sep 2024 10:20:47 AM BST
 CP2K| Program compiled on                                                  ln04
 CP2K| Program compiled for                                                local
 CP2K| Data directory path    /mnt/lustre/a2fs-work1/work/y07/shared/apps/core/c
 CP2K| Input file name                                                  cp2k.inp

 GLOBAL| Force Environment number                                              1
 GLOBAL| Basis set file name                                        BASIS_MOLOPT
 GLOBAL| Potential file name                                      GTH_POTENTIALS
 GLOBAL| MM Potential file name                                     MM_POTENTIAL
 GLOBAL| Coordinate file name                                      interface.cif
 GLOBAL| Method name                                                        CP2K
 GLOBAL| Project name                                           m07_A0350_eps0p5
 GLOBAL| Run type                                                   ENERGY_FORCE
 GLOBAL| FFT library                                                       FFTW3
 GLOBAL| Diagonalization library                                            ELPA
 GLOBAL| DGEMM library                                                      BLAS
 GLOBAL| Minimum number of eigenvectors for ELPA usage                        16
 GLOBAL| Orthonormality check for eigenvectors                          DISABLED
 GLOBAL| Matrix multiplication library                                     COSMA
 GLOBAL| All-to-all communication in single precision                          F
 GLOBAL| FFTs using library dependent lengths                                  T
 GLOBAL| Grid backend                                                       AUTO
 GLOBAL| Global print level                                                  LOW
 GLOBAL| MPI I/O enabled                                                       T
 GLOBAL| Total number of message passing processes                            64
 GLOBAL| Number of threads for this process                                    8
 GLOBAL| This output is from process                                           0
 GLOBAL| Stack size for threads created by OpenMP (OMP_STACKSIZE)        default
 GLOBAL| CPU model name                          AMD EPYC 7742 64-Core Processor
 GLOBAL| CPUID                                                              1002

 MEMORY| system memory details [Kb]
 MEMORY|                        rank 0           min           max       average
 MEMORY| MemTotal            263266864     263266852     263266876     263266863
 MEMORY| MemFree             249037464     249037436     249267928     249198795
 MEMORY| Buffers                208568        120708        208568        145976
 MEMORY| Cached                1208868       1196676       1208868       1201663
 MEMORY| Slab                  3421984       3375212       3421984       3387749
 MEMORY| SReclaimable          1434684       1421756       1434684       1427539
 MEMORY| MemLikelyFree       251889584     251889556     252013480     251973973


 GENERATE|  Preliminary Number of Bonds generated:                             0
 GENERATE|  Achieved consistency in connectivity generation.

 *******************************************************************************
 *******************************************************************************
 **                                                                           **
 **     #####                         ##              ##                      **
 **    ##   ##            ##          ##              ##                      **
 **   ##     ##                       ##            ######                    **
 **   ##     ##  ##   ##  ##   #####  ##  ##   ####   ##    #####    #####    **
 **   ##     ##  ##   ##  ##  ##      ## ##   ##      ##   ##   ##  ##   ##   **
 **   ##  ## ##  ##   ##  ##  ##      ####     ###    ##   ######   ######    **
 **    ##  ###   ##   ##  ##  ##      ## ##      ##   ##   ##       ##        **
 **     #######   #####   ##   #####  ##  ##  ####    ##    #####   ##        **
 **           ##                                                    ##        **
 **                                                                           **
 **                                                ... make the atoms dance   **
 **                                                                           **
 **            Copyright (C) by CP2K developers group (2000-2024)             **
 **                      J. Chem. Phys. 152, 194103 (2020)                    **
 **                                                                           **
 *******************************************************************************


 TOTAL NUMBERS AND MAXIMUM NUMBERS

  Total number of            - Atomic kinds:                                   4
                             - Atoms:                                        885
                             - Shell sets:                                   885
                             - Shells:                                      5241
                             - Primitive Cartesian functions:               4743
                             - Cartesian basis functions:                  16692
                             - Spherical basis functions:                  14811

  Maximum angular momentum of- Orbital basis functions:                        3
                             - Local part of the GTH pseudopotential:          2
                             - Non-local part of the GTH pseudopotential:      4


 SCF PARAMETERS         Density guess:                                    ATOMIC
                        --------------------------------------------------------
                        max_scf:                                              60
                        max_scf_history:                                       0
                        max_diis:                                              4
                        --------------------------------------------------------
                        eps_scf:                                        1.00E-06
                        eps_scf_history:                                0.00E+00
                        eps_diis:                                       1.00E-01
                        eps_eigval:                                     1.00E-05
                        --------------------------------------------------------
                        level_shift [a.u.]:                             0.000000
                        --------------------------------------------------------
                        Outer loop SCF in use 
                        No variables optimised in outer loop
                        eps_scf                                         1.00E-06
                        max_scf                                               25
                        No outer loop optimization
                        step_size                                       5.00E-01

 Number of electrons:                                                       7080
 Number of occupied orbitals:                                               3540
 Number of molecular orbitals:                                              3540

 Number of orbital functions:                                              14811
 Number of independent orbital functions:                                  14811

 Extrapolation method: initial_guess


 SCF WAVEFUNCTION OPTIMIZATION

  ----------------------------------- OT ---------------------------------------
  Minimizer      : DIIS                : direct inversion
                                         in the iterative subspace
                                         using   7 DIIS vectors
                                         safer DIIS on
  Preconditioner : FULL_SINGLE_INVERSE : inversion of 
                                         H + eS - 2*(Sc)(c^T*H*c+const)(Sc)^T
  Precond_solver : DEFAULT
  stepsize       :    0.08000000                  energy_gap     :    0.05000000
  eps_taylor     :   0.10000E-15                  max_taylor     :             4
  ----------------------------------- OT ---------------------------------------

  Step     Update method      Time    Convergence         Total energy    Change
  ------------------------------------------------------------------------------
     1 OT DIIS     0.80E-01   11.7     0.01475181    -23523.7168188421 -2.35E+04
     2 OT DIIS     0.80E-01    4.8     0.33881354    -15540.6371540035  7.98E+03
     3 OT DIIS     0.80E-01    4.7     0.06179057    -23311.6373285842 -7.77E+03
     4 OT DIIS     0.80E-01    4.7     0.02570428    -23621.7927872523 -3.10E+02
     5 OT DIIS     0.80E-01    4.6     0.00632427    -23684.1139946859 -6.23E+01
     6 OT DIIS     0.80E-01    4.6     0.00501947    -23728.7660536467 -4.47E+01
     7 OT DIIS     0.80E-01    4.6     0.00410528    -23771.9178200606 -4.32E+01
     8 OT DIIS     0.80E-01    4.6     0.00412703    -23821.8212615545 -4.99E+01
     9 OT DIIS     0.80E-01    4.4     0.00373959    -23839.8678266341 -1.80E+01
    10 OT DIIS     0.80E-01    4.4     0.00516645    -23877.3289049324 -3.75E+01
    11 OT DIIS     0.80E-01    4.5     0.00655180    -23894.8483004895 -1.75E+01
    12 OT DIIS     0.80E-01    4.4     0.00317401    -23915.3543206278 -2.05E+01
    13 OT DIIS     0.80E-01    4.4     0.00231268    -23934.5249906547 -1.92E+01
    14 OT DIIS     0.80E-01    4.4     0.00210493    -23947.3366856769 -1.28E+01
    15 OT DIIS     0.80E-01    4.4     0.00182271    -23961.1660267912 -1.38E+01
    16 OT DIIS     0.80E-01    4.3     0.00158933    -23976.4196863969 -1.53E+01
    17 OT DIIS     0.80E-01    4.3     0.00152959    -23984.5851324972 -8.17E+00
    18 OT DIIS     0.80E-01    4.4     0.00118034    -23994.1804057916 -9.60E+00
    19 OT DIIS     0.80E-01    4.4     0.00121172    -24004.9986313651 -1.08E+01
    20 OT DIIS     0.80E-01    4.4     0.00141003    -24009.4819349126 -4.48E+00
    21 OT DIIS     0.80E-01    4.4     0.00109260    -24015.5939991341 -6.11E+00
    22 OT DIIS     0.80E-01    4.4     0.00107909    -24021.1446229089 -5.55E+00
    23 OT DIIS     0.80E-01    4.4     0.00093370    -24026.3369076230 -5.19E+00
    24 OT DIIS     0.80E-01    4.4     0.00089097    -24032.1183610548 -5.78E+00
    25 OT DIIS     0.80E-01    4.4     0.00087165    -24036.4974900122 -4.38E+00
    26 OT DIIS     0.80E-01    4.4     0.00080229    -24040.7337969041 -4.24E+00
    27 OT DIIS     0.80E-01    4.3     0.00077137    -24046.1843412327 -5.45E+00
    28 OT DIIS     0.80E-01    4.3     0.00076172    -24049.5746089322 -3.39E+00
    29 OT DIIS     0.80E-01    4.3     0.00071977    -24052.1401489845 -2.57E+00
    30 OT DIIS     0.80E-01    4.3     0.00067386    -24055.0413048716 -2.90E+00
    31 OT DIIS     0.80E-01    4.3     0.00061592    -24057.5296603379 -2.49E+00
    32 OT DIIS     0.80E-01    4.3     0.00059011    -24060.1905420448 -2.66E+00
    33 OT DIIS     0.80E-01    4.3     0.00058671    -24062.4556483677 -2.27E+00
    34 OT DIIS     0.80E-01    4.3     0.00054434    -24064.3082753356 -1.85E+00
    35 OT DIIS     0.80E-01    4.4     0.00050563    -24066.4290140684 -2.12E+00
    36 OT DIIS     0.80E-01    4.3     0.00050031    -24068.0202400555 -1.59E+00
    37 OT DIIS     0.80E-01    4.3     0.00049451    -24069.2799516729 -1.26E+00
    38 OT DIIS     0.80E-01    4.3     0.00046091    -24070.5834776227 -1.30E+00
    39 OT DIIS     0.80E-01    4.4     0.00044717    -24071.8385592603 -1.26E+00
    40 OT DIIS     0.80E-01    4.3     0.00041536    -24073.0909701305 -1.25E+00
    41 OT DIIS     0.80E-01    4.3     0.00039678    -24074.0405359528 -9.50E-01
    42 OT DIIS     0.80E-01    4.3     0.00039044    -24074.9454756059 -9.05E-01
    43 OT DIIS     0.80E-01    4.3     0.00037261    -24075.9158669545 -9.70E-01
    44 OT DIIS     0.80E-01    4.3     0.00035515    -24076.7698264826 -8.54E-01
    45 OT DIIS     0.80E-01    4.3     0.00038057    -24077.5316800487 -7.62E-01
    46 OT DIIS     0.80E-01    4.4     0.00034419    -24078.2055969429 -6.74E-01
    47 OT DIIS     0.80E-01    4.3     0.00031812    -24078.9211117128 -7.16E-01
    48 OT DIIS     0.80E-01    4.3     0.00031760    -24079.5850778244 -6.64E-01
    49 OT DIIS     0.80E-01    4.3     0.00030853    -24080.1333111835 -5.48E-01
    50 OT DIIS     0.80E-01    4.3     0.00028989    -24080.6997490188 -5.66E-01
    51 OT DIIS     0.80E-01    4.2     0.00028767    -24081.3686772611 -6.69E-01
    52 OT DIIS     0.80E-01    4.3     0.00028292    -24081.8519170386 -4.83E-01
    53 OT DIIS     0.80E-01    4.3     0.00026819    -24082.2876353345 -4.36E-01
    54 OT DIIS     0.80E-01    4.3     0.00025825    -24082.6920859205 -4.04E-01
    55 OT DIIS     0.80E-01    4.3     0.00025637    -24083.1790659403 -4.87E-01
    56 OT DIIS     0.80E-01    4.3     0.00024777    -24083.6036965056 -4.25E-01
    57 OT DIIS     0.80E-01    4.3     0.00023768    -24083.9923540609 -3.89E-01
    58 OT DIIS     0.80E-01    4.3     0.00022985    -24084.3339022415 -3.42E-01
    59 OT DIIS     0.80E-01    4.3     0.00021841    -24084.6964088390 -3.63E-01
    60 OT DIIS     0.80E-01    4.3     0.00021606    -24085.0311371906 -3.35E-01

  Leaving inner SCF loop after reaching    60 steps.


  Electronic density on regular grids:      -7079.9999993170        0.0000006830
  Core density on regular grids:             7079.9999995590       -0.0000004410
  Total dipole moment perpendicular to 
  the slab [electrons-Angstroem]:               3.8493843783
  Total charge density on r-space grids:        0.0000002421
  Total charge density g-space grids:           0.0000002421

  Overlap energy of the core charge distribution:               0.00011647179535
  Self energy of the core charge distribution:             -48033.46742924736463
  Core Hamiltonian energy:                                  12356.46443338645804
  Hartree energy:                                           15482.42385181670215
  Exchange-correlation energy:                              -3890.45210961816247

  Total energy:                                            -24085.03113719057001

  outer SCF iter =    1 RMS gradient =   0.22E-03 energy =     -24085.0311371906

  ----------------------------------- OT ---------------------------------------
  Minimizer      : DIIS                : direct inversion
                                         in the iterative subspace
                                         using   7 DIIS vectors
                                         safer DIIS on
  Preconditioner : FULL_SINGLE_INVERSE : inversion of 
                                         H + eS - 2*(Sc)(c^T*H*c+const)(Sc)^T
  Precond_solver : DEFAULT
  stepsize       :    0.08000000                  energy_gap     :    0.05000000
  eps_taylor     :   0.10000E-15                  max_taylor     :             4
  ----------------------------------- OT ---------------------------------------

  Step     Update method      Time    Convergence         Total energy    Change
  ------------------------------------------------------------------------------
     1 OT DIIS     0.80E-01   15.6     0.00082744    -24085.3312083120 -3.00E-01
     2 OT DIIS     0.80E-01    4.7     0.00069897    -24087.6859145980 -2.35E+00
     3 OT DIIS     0.80E-01    4.6     0.00098115    -24088.8342138148 -1.15E+00
     4 OT DIIS     0.80E-01    4.6     0.00111040    -24089.6676678391 -8.33E-01
     5 OT DIIS     0.80E-01    4.5     0.00077739    -24090.6076559585 -9.40E-01
     6 OT DIIS     0.80E-01    4.5     0.00063921    -24091.3324853032 -7.25E-01
     7 OT DIIS     0.80E-01    4.5     0.00056469    -24091.8795590781 -5.47E-01
     8 OT DIIS     0.80E-01    4.5     0.00047450    -24092.1803507859 -3.01E-01
     9 OT DIIS     0.80E-01    4.4     0.00038312    -24092.3428588677 -1.63E-01
    10 OT DIIS     0.80E-01    4.3     0.00027680    -24092.4901463395 -1.47E-01
    11 OT DIIS     0.80E-01    4.4     0.00022052    -24092.5749707706 -8.48E-02
    12 OT DIIS     0.80E-01    4.4     0.00019874    -24092.6453050287 -7.03E-02
    13 OT DIIS     0.80E-01    4.3     0.00014449    -24092.7063402105 -6.10E-02
    14 OT DIIS     0.80E-01    4.4     0.00012633    -24092.7620620244 -5.57E-02
    15 OT DIIS     0.80E-01    4.4     0.00010243    -24092.7899557998 -2.79E-02
    16 OT DIIS     0.80E-01    4.3     0.00008354    -24092.8128200303 -2.29E-02
    17 OT DIIS     0.80E-01    4.3     0.00007685    -24092.8255813257 -1.28E-02
    18 OT DIIS     0.80E-01    4.4     0.00006500    -24092.8365657560 -1.10E-02
    19 OT DIIS     0.80E-01    4.4     0.00005574    -24092.8448091725 -8.24E-03
    20 OT DIIS     0.80E-01    4.3     0.00004687    -24092.8513206535 -6.51E-03
    21 OT DIIS     0.80E-01    4.4     0.00003471    -24092.8555725660 -4.25E-03
    22 OT DIIS     0.80E-01    4.4     0.00002955    -24092.8599574631 -4.38E-03
    23 OT DIIS     0.80E-01    4.3     0.00002614    -24092.8627443387 -2.79E-03
    24 OT DIIS     0.80E-01    4.3     0.00002243    -24092.8654349610 -2.69E-03
    25 OT DIIS     0.80E-01    4.4     0.00002047    -24092.8673012594 -1.87E-03
    26 OT DIIS     0.80E-01    4.3     0.00001777    -24092.8684925884 -1.19E-03
    27 OT DIIS     0.80E-01    4.3     0.00001567    -24092.8695696942 -1.08E-03
    28 OT DIIS     0.80E-01    4.3     0.00001445    -24092.8703939690 -8.24E-04
    29 OT DIIS     0.80E-01    4.3     0.00001274    -24092.8710041721 -6.10E-04
    30 OT DIIS     0.80E-01    4.3     0.00001071    -24092.8716981827 -6.94E-04
    31 OT DIIS     0.80E-01    4.3     0.00000952    -24092.8721256697 -4.27E-04
    32 OT DIIS     0.80E-01    4.3     0.00000812    -24092.8724951248 -3.69E-04
    33 OT DIIS     0.80E-01    4.3     0.00000758    -24092.8727795376 -2.84E-04
    34 OT DIIS     0.80E-01    4.3     0.00000718    -24092.8729729193 -1.93E-04
    35 OT DIIS     0.80E-01    4.3     0.00000657    -24092.8731618945 -1.89E-04
    36 OT DIIS     0.80E-01    4.3     0.00000608    -24092.8732909634 -1.29E-04
    37 OT DIIS     0.80E-01    4.3     0.00000534    -24092.8733793547 -8.84E-05
    38 OT DIIS     0.80E-01    4.4     0.00000450    -24092.8734703229 -9.10E-05
    39 OT DIIS     0.80E-01    4.3     0.00000413    -24092.8735341283 -6.38E-05
    40 OT DIIS     0.80E-01    4.2     0.00000372    -24092.8735959366 -6.18E-05
    41 OT DIIS     0.80E-01    4.3     0.00000355    -24092.8736541755 -5.82E-05
    42 OT DIIS     0.80E-01    4.3     0.00000340    -24092.8736965560 -4.24E-05
    43 OT DIIS     0.80E-01    4.2     0.00000313    -24092.8737399498 -4.34E-05
    44 OT DIIS     0.80E-01    4.3     0.00000296    -24092.8737738400 -3.39E-05
    45 OT DIIS     0.80E-01    4.3     0.00000280    -24092.8738021688 -2.83E-05
    46 OT DIIS     0.80E-01    4.3     0.00000252    -24092.8738342672 -3.21E-05
    47 OT DIIS     0.80E-01    4.3     0.00000240    -24092.8738630001 -2.87E-05
    48 OT DIIS     0.80E-01    4.3     0.00000219    -24092.8738907049 -2.77E-05
    49 OT DIIS     0.80E-01    4.3     0.00000206    -24092.8739181314 -2.74E-05
    50 OT DIIS     0.80E-01    4.3     0.00000199    -24092.8739391202 -2.10E-05
    51 OT DIIS     0.80E-01    4.2     0.00000190    -24092.8739619164 -2.28E-05
    52 OT DIIS     0.80E-01    4.3     0.00000185    -24092.8739815358 -1.96E-05
    53 OT DIIS     0.80E-01    4.3     0.00000179    -24092.8739989697 -1.74E-05
    54 OT DIIS     0.80E-01    4.3     0.00000161    -24092.8740165705 -1.76E-05
    55 OT DIIS     0.80E-01    4.3     0.00000152    -24092.8740320270 -1.55E-05
    56 OT DIIS     0.80E-01    4.3     0.00000139    -24092.8740458565 -1.38E-05
    57 OT DIIS     0.80E-01    4.3     0.00000133    -24092.8740599639 -1.41E-05
    58 OT DIIS     0.80E-01    4.3     0.00000130    -24092.8740715871 -1.16E-05
    59 OT DIIS     0.80E-01    4.2     0.00000124    -24092.8740837222 -1.21E-05
    60 OT DIIS     0.80E-01    4.3     0.00000120    -24092.8740939296 -1.02E-05

  Leaving inner SCF loop after reaching    60 steps.


  Electronic density on regular grids:      -7079.9999993194        0.0000006806
  Core density on regular grids:             7079.9999995590       -0.0000004410
  Total dipole moment perpendicular to 
  the slab [electrons-Angstroem]:               6.0614378329
  Total charge density on r-space grids:        0.0000002396
  Total charge density g-space grids:           0.0000002396

  Overlap energy of the core charge distribution:               0.00011647179535
  Self energy of the core charge distribution:             -48033.46742924736463
  Core Hamiltonian energy:                                  12338.92454858661040
  Hartree energy:                                           15492.37052588274855
  Exchange-correlation energy:                              -3890.70185562340930

  Total energy:                                            -24092.87409392961854

  outer SCF iter =    2 RMS gradient =   0.12E-05 energy =     -24092.8740939296

  ----------------------------------- OT ---------------------------------------
  Minimizer      : DIIS                : direct inversion
                                         in the iterative subspace
                                         using   7 DIIS vectors
                                         safer DIIS on
  Preconditioner : FULL_SINGLE_INVERSE : inversion of 
                                         H + eS - 2*(Sc)(c^T*H*c+const)(Sc)^T
  Precond_solver : DEFAULT
  stepsize       :    0.08000000                  energy_gap     :    0.05000000
  eps_taylor     :   0.10000E-15                  max_taylor     :             4
  ----------------------------------- OT ---------------------------------------

  Step     Update method      Time    Convergence         Total energy    Change
  ------------------------------------------------------------------------------
     1 OT DIIS     0.80E-01   15.1     0.00000309    -24092.8741025866 -8.66E-06
     2 OT DIIS     0.80E-01    3.9     0.00000273    -24092.8741372096 -3.46E-05
     3 OT DIIS     0.80E-01    3.8     0.00000283    -24092.8741560437 -1.88E-05
     4 OT DIIS     0.80E-01    3.9     0.00000135    -24092.8742092067 -5.32E-05
     5 OT DIIS     0.80E-01    3.9     0.00000069    -24092.8742119277 -2.72E-06

  *** SCF run converged in     5 steps ***


  Electronic density on regular grids:      -7079.9999993194        0.0000006806
  Core density on regular grids:             7079.9999995590       -0.0000004410
  Total dipole moment perpendicular to 
  the slab [electrons-Angstroem]:               6.0624868210
  Total charge density on r-space grids:        0.0000002396
  Total charge density g-space grids:           0.0000002396

  Overlap energy of the core charge distribution:               0.00011647179535
  Self energy of the core charge distribution:             -48033.46742924736463
  Core Hamiltonian energy:                                  12338.92390468082522
  Hartree energy:                                           15492.37091299651547
  Exchange-correlation energy:                              -3890.70171682945283

  Total energy:                                            -24092.87421192768306

  outer SCF iter =    3 RMS gradient =   0.69E-06 energy =     -24092.8742119277
  outer SCF loop converged in   3 iterations or  125 steps


 ENERGY| Total FORCE_EVAL ( QS ) energy [a.u.]:           -24092.874214404771919

 ATOMIC FORCES in [a.u.]

 # Atom   Kind   Element          X              Y              Z
      1      1      Sr         -0.00005501     0.00000732     0.02948899
      2      1      Sr          0.00004044     0.00005168     0.02949862
      3      1      Sr          0.00008119     0.00007202     0.02953427
      4      1      Sr         -0.00004817    -0.00007915     0.02953461
      5      1      Sr         -0.00002841    -0.00007182     0.02949964
      6      1      Sr         -0.00009703     0.00001771     0.02953701
      7      1      Sr         -0.00010451    -0.00005646     0.02950685
      8      1      Sr          0.00003724    -0.00000053     0.02949142
      9      1      Sr          0.00010658     0.00006411     0.02952073
     10      1      Sr         -0.00002270    -0.00004258     0.02953016
     11      1      Sr         -0.00009056    -0.00001826     0.02950725
     12      1      Sr          0.00008829     0.00000155     0.02953974
     13      1      Sr          0.00001606    -0.00003341     0.02954624
     14      1      Sr         -0.00008637    -0.00011272     0.02951616
     15      1      Sr         -0.00001271     0.00000737     0.02948540
     16      1      Sr          0.00006744     0.00011044     0.02951049
     17      1      Sr         -0.00003362     0.00005041     0.02954205
     18      1      Sr          0.00006270    -0.00001346     0.02949384
     19      1      Sr          0.00010403     0.00001912     0.02950889
     20      1      Sr          0.00003798     0.00003391     0.02953585
     21      1      Sr         -0.00010523    -0.00005625     0.02952729
     22      1      Sr         -0.00004603    -0.00000813     0.02949655
     23      1      Sr          0.00008834     0.00005667     0.02950816
     24      1      Sr         -0.00015886     0.00007003     0.00228744
     25      1      Sr          0.00003180     0.00014188     0.00237256
     26      1      Sr          0.00019003     0.00026585     0.00261244
     27      1      Sr         -0.00012727    -0.00026966     0.00258806
     28      1      Sr          0.00001740    -0.00021706     0.00236280
     29      1      Sr         -0.00027850     0.00014003     0.00264494
     30      1      Sr         -0.00027813    -0.00018474     0.00241326
     31      1      Sr          0.00016768    -0.00005951     0.00229052
     32      1      Sr          0.00039475     0.00016456     0.00254436
     33      1      Sr         -0.00010110    -0.00021679     0.00257370
     34      1      Sr         -0.00022861     0.00000155     0.00235674
     35      1      Sr          0.00027140    -0.00007003     0.00261146
     36      1      Sr          0.00018308    -0.00008768     0.00272178
     37      1      Sr         -0.00023195    -0.00038622     0.00248370
     38      1      Sr         -0.00004415     0.00002876     0.00222098
     39      1      Sr          0.00017579     0.00035743     0.00243640
     40      1      Sr         -0.00018734     0.00012418     0.00265781
     41      1      Sr          0.00020349    -0.00006718     0.00232515
     42      1      Sr          0.00022253     0.00002146     0.00241288
     43      1      Sr          0.00009743     0.00016725     0.00258586
     44      1      Sr         -0.00034729    -0.00011877     0.00254161
     45      1      Sr         -0.00018324     0.00002734     0.00235968
     46      1      Sr          0.00021191     0.00016794     0.00242908
     47      1      Sr         -0.00113093    -0.00029953     0.01368699
     48      1      Sr         -0.00037173     0.00145338     0.01405687
     49      1      Sr          0.00032041     0.00050613     0.01377274
     50      1      Sr         -0.00052133    -0.00032903     0.01266820
     51      1      Sr          0.00110768    -0.00196961     0.01393001
     52      1      Sr         -0.00162557     0.00093424     0.01413569
     53      1      Sr         -0.00082924    -0.00142982     0.01283866
     54      1      Sr          0.00151653    -0.00008806     0.01399080
     55      1      Sr          0.00255315     0.00132849     0.01431180
     56      1      Sr         -0.00038137    -0.00161409     0.01410903
     57      1      Sr         -0.00117352     0.00022068     0.01428693
     58      1      Sr          0.00123152     0.00103287     0.01344889
     59      1      Sr          0.00220260    -0.00114717     0.01443845
     60      1      Sr         -0.00076318    -0.00119299     0.01451450
     61      1      Sr         -0.00081259    -0.00083675     0.01486485
     62      1      Sr          0.00056934     0.00259164     0.01401182
     63      1      Sr         -0.00121488    -0.00002411     0.01390006
     64      1      Sr          0.00117454     0.00095737     0.01442284
     65      1      Sr          0.00039531    -0.00111422     0.01450976
     66      1      Sr          0.00026311     0.00228354     0.01395877
     67      1      Sr         -0.00202560    -0.00188171     0.01344263
     68      1      Sr         -0.00112667     0.00107718     0.01405401
     69      1      Sr          0.00074516    -0.00044790     0.01336469
     70      2      Hf          0.01322807    -0.03191532     0.04787657
     71      2      Hf          0.01318703    -0.03194836     0.04792275
     72      2      Hf          0.01323821    -0.03190887     0.04793276
     73      2      Hf          0.01320168    -0.03194020     0.04793078
     74      2      Hf          0.01325137    -0.03189325     0.04789763
     75      2      Hf          0.01320873    -0.03193439     0.04787323
     76      2      Hf          0.01323834    -0.03189210     0.04788678
     77      2      Hf          0.01318567    -0.03193967     0.04789010
     78      2      Hf          0.01321188    -0.03191811     0.04793175
     79      2      Hf         -0.04144955     0.03438373    -0.07029320
     80      2      Hf         -0.04143164     0.03438648    -0.07023918
     81      2      Hf         -0.04139705     0.03441896    -0.07027357
     82      2      Hf         -0.04140967     0.03440103    -0.07024554
     83      2      Hf         -0.04141009     0.03441416    -0.07029910
     84      2      Hf         -0.04145316     0.03436993    -0.07027947
     85      2      Hf         -0.04143576     0.03440714    -0.07030524
     86      2      Hf         -0.04145596     0.03437579    -0.07026158
     87      2      Hf         -0.04140439     0.03441984    -0.07025514
     88      2      Hf         -0.02005211     0.08454646     0.01557392
     89      2      Hf         -0.02010972     0.08451134     0.01554867
     90      2      Hf         -0.02012178     0.08448981     0.01559563
     91      2      Hf         -0.02012541     0.08448277     0.01556293
     92      2      Hf         -0.02008540     0.08450613     0.01559597
     93      2      Hf         -0.02004855     0.08454534     0.01555522
     94      2      Hf         -0.02006322     0.08453716     0.01558703
     95      2      Hf         -0.02007962     0.08453516     0.01554114
     96      2      Hf         -0.02013299     0.08448108     0.01557448
     97      2      Hf          0.02875701    -0.09818864     0.06594872
     98      2      Hf          0.02883734    -0.09813064     0.06592760
     99      2      Hf          0.02879049    -0.09815668     0.06587959
    100      2      Hf          0.02882918    -0.09811896     0.06590052
    101      2      Hf          0.02875898    -0.09817677     0.06588685
    102      2      Hf          0.02877280    -0.09817136     0.06595347
    103      2      Hf          0.02874024    -0.09818330     0.06591580
    104      2      Hf          0.02880172    -0.09814755     0.06595873
    105      2      Hf          0.02881420    -0.09813228     0.06588757
    106      2      Hf          0.01883455    -0.05935517     0.07989105
    107      2      Hf          0.01895350    -0.05929317     0.08002856
    108      2      Hf          0.01898075    -0.05922220     0.07978440
    109      2      Hf          0.01897002    -0.05922102     0.07995116
    110      2      Hf          0.01891433    -0.05925085     0.07973281
    111      2      Hf          0.01883964    -0.05935229     0.07995098
    112      2      Hf          0.01885435    -0.05928327     0.07978746
    113      2      Hf          0.01885730    -0.05932450     0.08003704
    114      2      Hf          0.01899171    -0.05921197     0.07987894
    115      2      Hf         -0.01275856     0.05553890    -0.07226674
    116      2      Hf         -0.01261408     0.05564951    -0.07231765
    117      2      Hf         -0.01276783     0.05559417    -0.07252145
    118      2      Hf         -0.01265693     0.05567978    -0.07245154
    119      2      Hf         -0.01280689     0.05555089    -0.07248149
    120      2      Hf         -0.01271399     0.05557659    -0.07226190
    121      2      Hf         -0.01283265     0.05554463    -0.07239890
    122      2      Hf         -0.01266421     0.05562644    -0.07224673
    123      2      Hf         -0.01270481     0.05565054    -0.07248037
    124      2      Hf         -0.02048109     0.06273907    -0.01805712
    125      2      Hf         -0.02062314     0.06260442    -0.01786098
    126      2      Hf         -0.02040859     0.06275001    -0.01787947
    127      2      Hf         -0.02054143     0.06264034    -0.01783960
    128      2      Hf         -0.02037092     0.06279473    -0.01799939
    129      2      Hf         -0.02055740     0.06266577    -0.01802443
    130      2      Hf         -0.02042586     0.06279909    -0.01803936
    131      2      Hf         -0.02062026     0.06263443    -0.01797362
    132      2      Hf         -0.02049882     0.06269470    -0.01784834
    133      2      Hf          0.01679575    -0.05791393     0.01704992
    134      2      Hf          0.01678954    -0.05791224     0.01680189
    135      2      Hf          0.01658364    -0.05806196     0.01697995
    136      2      Hf          0.01668311    -0.05794179     0.01679832
    137      2      Hf          0.01658120    -0.05803562     0.01704183
    138      2      Hf          0.01681967    -0.05787337     0.01699346
    139      2      Hf          0.01667688    -0.05798948     0.01712714
    140      2      Hf          0.01685283    -0.05785900     0.01689410
    141      2      Hf          0.01659001    -0.05802095     0.01688476
    142      2      Hf          0.01853772    -0.05781292     0.07565884
    143      2      Hf          0.01885650    -0.05753073     0.07495136
    144      2      Hf          0.01834849    -0.05786742     0.07499152
    145      2      Hf          0.01867688    -0.05743994     0.07483213
    146      2      Hf          0.01827847    -0.05794307     0.07518955
    147      2      Hf          0.01861431    -0.05767799     0.07556874
    148      2      Hf          0.01826539    -0.05792896     0.07558029
    149      2      Hf          0.01879805    -0.05748949     0.07542206
    150      2      Hf          0.01854707    -0.05772113     0.07477518
    151      2      Hf         -0.01828103     0.05780397    -0.07495669
    152      2      Hf         -0.01857538     0.05777402    -0.07562452
    153      2      Hf         -0.01879554     0.05743833    -0.07501124
    154      2      Hf         -0.01877445     0.05766247    -0.07566746
    155      2      Hf         -0.01873243     0.05754774    -0.07492806
    156      2      Hf         -0.01832598     0.05792339    -0.07506324
    157      2      Hf         -0.01849941     0.05764991    -0.07460694
    158      2      Hf         -0.01835865     0.05788817    -0.07543934
    159      2      Hf         -0.01892200     0.05755833    -0.07538118
    160      2      Hf         -0.02066639     0.05620298    -0.01760224
    161      2      Hf         -0.02003295     0.05653065    -0.01739818
    162      2      Hf         -0.01997401     0.05686998    -0.01815998
    163      2      Hf         -0.01993915     0.05685049    -0.01772703
    164      2      Hf         -0.02028138     0.05658670    -0.01814406
    165      2      Hf         -0.02049860     0.05631506    -0.01754423
    166      2      Hf         -0.02050537     0.05654985    -0.01805484
    167      2      Hf         -0.02046675     0.05637465    -0.01732793
    168      2      Hf         -0.01990843     0.05679411    -0.01785282
    169      2      Hf          0.02065862    -0.05619553     0.01741811
    170      2      Hf          0.01992035    -0.05681740     0.01767860
    171      2      Hf          0.02027873    -0.05658413     0.01822801
    172      2      Hf          0.01972159    -0.05686267     0.01787149
    173      2      Hf          0.02055069    -0.05631830     0.01817506
    174      2      Hf          0.02045767    -0.05630184     0.01743513
    175      2      Hf          0.02081707    -0.05622010     0.01791179
    176      2      Hf          0.02006856    -0.05663099     0.01733795
    177      2      Hf          0.02006182    -0.05673817     0.01833430
    178      2      Hf          0.01377917    -0.05474273     0.07235604
    179      2      Hf          0.01275469    -0.05629088     0.07114203
    180      2      Hf          0.01281148    -0.05673425     0.07332375
    181      2      Hf          0.01225145    -0.05596666     0.07102160
    182      2      Hf          0.01298945    -0.05599151     0.07463074
    183      2      Hf          0.01407642    -0.05576724     0.07251519
    184      2      Hf          0.01404728    -0.05632525     0.07433477
    185      2      Hf          0.01330509    -0.05483453     0.07051181
    186      2      Hf          0.01213993    -0.05669034     0.07384676
    187      2      Hf         -0.01843319     0.05986576    -0.08102302
    188      2      Hf         -0.01946587     0.05864883    -0.07953434
    189      2      Hf         -0.01828493     0.05942404    -0.07811909
    190      2      Hf         -0.02000120     0.05847751    -0.07948398
    191      2      Hf         -0.01793691     0.05968103    -0.07859646
    192      2      Hf         -0.01883939     0.06009169    -0.08088186
    193      2      Hf         -0.01750565     0.06026163    -0.07905528
    194      2      Hf         -0.01994482     0.05876637    -0.08132473
    195      2      Hf         -0.01870668     0.05869934    -0.07784545
    196      2      Hf         -0.01647989     0.05836411    -0.01628730
    197      2      Hf         -0.01560009     0.05879229    -0.01773839
    198      2      Hf         -0.01819151     0.05713264    -0.01725824
    199      2      Hf         -0.01642863     0.05877362    -0.01848174
    200      2      Hf         -0.01785193     0.05729181    -0.01688181
    201      2      Hf         -0.01671083     0.05793612    -0.01613169
    202      2      Hf         -0.01843127     0.05675295    -0.01575324
    203      2      Hf         -0.01561546     0.05923094    -0.01724788
    204      2      Hf         -0.01706585     0.05792780    -0.01787482
    205      2      Hf          0.01978789    -0.06345374     0.01648463
    206      2      Hf          0.01941967    -0.06286029     0.01871872
    207      2      Hf          0.02125406    -0.06126781     0.01803902
    208      2      Hf          0.02029185    -0.06228726     0.02021739
    209      2      Hf          0.02184712    -0.06248762     0.01669687
    210      2      Hf          0.01846907    -0.06286272     0.01757411
    211      2      Hf          0.02024039    -0.06227480     0.01634735
    212      2      Hf          0.01924490    -0.06387746     0.01923786
    213      2      Hf          0.02183641    -0.06257893     0.01823694
    214      2      Hf          0.05024503    -0.03382992     0.07089362
    215      2      Hf          0.03069776    -0.03349345     0.07256149
    216      2      Hf          0.03766220    -0.03378582     0.06073689
    217      2      Hf          0.03629937    -0.04573552     0.06370827
    218      2      Hf          0.04687041    -0.02645709     0.06211938
    219      2      Hf          0.03486757    -0.02630740     0.06722115
    220      2      Hf          0.04064154    -0.02455930     0.05900079
    221      2      Hf          0.04254859    -0.04663354     0.06974878
    222      2      Hf          0.03725849    -0.03141123     0.06335193
    223      2      Hf         -0.01908053     0.03250569    -0.04651376
    224      2      Hf         -0.01550036     0.03035321    -0.05944018
    225      2      Hf         -0.00932218     0.03751822    -0.05654295
    226      2      Hf         -0.01290416     0.03334518    -0.05879835
    227      2      Hf         -0.01456731     0.03513926    -0.05443367
    228      2      Hf         -0.01722059     0.02924414    -0.05919619
    229      2      Hf         -0.01196953     0.03090304    -0.05525813
    230      2      Hf         -0.01715094     0.02756391    -0.05093803
    231      2      Hf         -0.01181619     0.03138221    -0.05866669
    232      2      Hf         -0.02603048     0.09849648    -0.06482055
    233      2      Hf         -0.03018668     0.09028828    -0.05879528
    234      2      Hf         -0.03106593     0.08653631    -0.05815190
    235      2      Hf         -0.03500786     0.08975273    -0.06105334
    236      2      Hf         -0.03051786     0.09279226    -0.05773952
    237      2      Hf         -0.02382820     0.09616123    -0.05736812
    238      2      Hf         -0.02479309     0.09114653    -0.05744720
    239      2      Hf         -0.02897753     0.09757929    -0.06696774
    240      2      Hf         -0.03325062     0.08752646    -0.05597379
    241      2      Hf          0.01338584    -0.08174903    -0.02379853
    242      2      Hf          0.02943598    -0.08027462    -0.02398577
    243      2      Hf          0.02361953    -0.06753319    -0.00387190
    244      2      Hf          0.03053302    -0.06562982    -0.02217908
    245      2      Hf          0.01936741    -0.08571940    -0.02427513
    246      2      Hf          0.02012810    -0.08690107    -0.01931864
    247      2      Hf          0.01568152    -0.08430679     0.00631709
    248      2      Hf          0.02272239    -0.07577332    -0.02332512
    249      2      Hf          0.03116249    -0.08226660    -0.01847190
    250      3      Ti          0.00000914    -0.00001371    -0.01548143
    251      3      Ti          0.00026662     0.00015603    -0.01544645
    252      3      Ti          0.00010355    -0.00002425    -0.01460296
    253      3      Ti         -0.00027634    -0.00028621    -0.01551060
    254      3      Ti         -0.00013625    -0.00010156    -0.01586379
    255      3      Ti         -0.00028612    -0.00020200    -0.01463243
    256      3      Ti         -0.00020613    -0.00024953    -0.01583904
    257      3      Ti          0.00021968     0.00015520    -0.01579404
    258      3      Ti          0.00009239     0.00014399    -0.01515851
    259      3      Ti         -0.00023069     0.00000918    -0.01531381
    260      3      Ti         -0.00038888     0.00010416    -0.01537433
    261      3      Ti          0.00028209     0.00000664    -0.01519340
    262      3      Ti         -0.00015086    -0.00018278    -0.01506348
    263      3      Ti         -0.00025211    -0.00010102    -0.01576801
    264      3      Ti          0.00007659     0.00023770    -0.01571782
    265      3      Ti          0.00028575     0.00016770    -0.01473923
    266      3      Ti         -0.00004236     0.00008727    -0.01469767
    267      3      Ti          0.00019479     0.00012942    -0.01585282
    268      3      Ti          0.00034302     0.00018313    -0.01539635
    269      3      Ti         -0.00003595     0.00003807    -0.01467367
    270      3      Ti         -0.00026541    -0.00016358    -0.01516746
    271      3      Ti          0.00002132    -0.00009738    -0.01552270
    272      3      Ti          0.00035682    -0.00000021    -0.01532979
    273      3      Ti          0.00024425    -0.00002562    -0.00296301
    274      3      Ti          0.00097265     0.00066137    -0.00136509
    275      3      Ti         -0.00022586    -0.00036498     0.00131586
    276      3      Ti         -0.00085287    -0.00111746    -0.00238353
    277      3      Ti         -0.00032095    -0.00030101    -0.00445874
    278      3      Ti         -0.00148508    -0.00077329     0.00140566
    279      3      Ti         -0.00073882    -0.00111525    -0.00382985
    280      3      Ti          0.00079334     0.00051822    -0.00451624
    281      3      Ti          0.00051922     0.00033267     0.00012003
    282      3      Ti         -0.00082991     0.00028435    -0.00256149
    283      3      Ti         -0.00132001     0.00050872    -0.00142557
    284      3      Ti          0.00090838    -0.00009719    -0.00163503
    285      3      Ti         -0.00026905    -0.00073331    -0.00018970
    286      3      Ti         -0.00091662    -0.00012408    -0.00381915
    287      3      Ti          0.00027945     0.00084008    -0.00314483
    288      3      Ti          0.00132835     0.00078681    -0.00002694
    289      3      Ti         -0.00005322     0.00028490     0.00165431
    290      3      Ti          0.00061600     0.00044720    -0.00310847
    291      3      Ti          0.00107307     0.00071167    -0.00248408
    292      3      Ti          0.00006337     0.00037264     0.00087407
    293      3      Ti         -0.00073510    -0.00060404    -0.00087465
    294      3      Ti          0.00000261    -0.00010355    -0.00207621
    295      3      Ti          0.00086145    -0.00040792    -0.00181584
    296      3      Ti          0.01203230     0.00800814    -0.00674708
    297      3      Ti         -0.00117829    -0.00167480    -0.05481182
    298      3      Ti         -0.01858310     0.01006902     0.00392418
    299      3      Ti         -0.00918567    -0.00580201    -0.04528045
    300      3      Ti         -0.00788553     0.00767159    -0.04581674
    301      3      Ti         -0.02389793    -0.01363573     0.00277414
    302      3      Ti         -0.01219752     0.01215327    -0.04587450
    303      3      Ti         -0.00239877    -0.00336161    -0.03834960
    304      3      Ti          0.00734685     0.00016219    -0.05009299
    305      3      Ti          0.00976639     0.00028482    -0.03628641
    306      3      Ti         -0.00028719    -0.00845575    -0.03430392
    307      3      Ti         -0.00175965    -0.01361191    -0.03542946
    308      3      Ti         -0.00286471     0.00753442    -0.04584444
    309      3      Ti          0.01323468    -0.00932658    -0.04471556
    310      3      Ti          0.00385827     0.00760588    -0.04349796
    311      3      Ti          0.01747649    -0.01031612     0.00973896
    312      3      Ti          0.00114765     0.01733270    -0.02933264
    313      3      Ti          0.01472116    -0.01032143    -0.05343983
    314      3      Ti          0.01115224     0.00997910    -0.03746539
    315      3      Ti          0.01014010    -0.01989692    -0.00458315
    316      3      Ti          0.00243452     0.01597721    -0.01898550
    317      3      Ti         -0.01238359    -0.02244467    -0.03584022
    318      3      Ti         -0.01166305     0.02147239    -0.02504153
    319      4      O          -0.00066548    -0.00051576    -0.00028897
    320      4      O           0.00002006     0.00023329    -0.00039491
    321      4      O          -0.00056955    -0.00028103    -0.00049139
    322      4      O           0.00113535    -0.00004384    -0.00046718
    323      4      O          -0.00016651     0.00137072    -0.00030944
    324      4      O          -0.00010132    -0.00096797    -0.00048782
    325      4      O          -0.00019415     0.00072030    -0.00043637
    326      4      O          -0.00000891     0.00000648    -0.00030463
    327      4      O           0.00028383    -0.00060499    -0.00039422
    328      4      O           0.00021890     0.00101519    -0.00037052
    329      4      O           0.00035367    -0.00031300    -0.00045255
    330      4      O           0.00016247    -0.00126350    -0.00040431
    331      4      O          -0.00101174     0.00028575    -0.00045885
    332      4      O           0.00057489     0.00030240    -0.00040441
    333      4      O          -0.00006995    -0.00032292    -0.00033662
    334      4      O           0.00055001     0.00027315    -0.00034087
    335      4      O          -0.00028529     0.00026303    -0.00058458
    336      4      O           0.00044491    -0.00094528    -0.00030444
    337      4      O          -0.00129411    -0.00025825    -0.00030598
    338      4      O           0.00026644    -0.00002779    -0.00049995
    339      4      O          -0.00028030    -0.00000793    -0.00051370
    340      4      O           0.00121867     0.00020858    -0.00034784
    341      4      O          -0.00057318     0.00087937    -0.00039390
    342      4      O           0.00019866    -0.00030537    -0.00037349
    343      4      O          -0.00101666    -0.00060176    -0.00038241
    344      4      O           0.00081197     0.00031158    -0.00056427
    345      4      O          -0.00023722     0.00079353    -0.00043338
    346      4      O           0.00088423    -0.00077435    -0.00030544
    347      4      O           0.00000910     0.00019793    -0.00052612
    348      4      O          -0.00053749    -0.00073915    -0.00032163
    349      4      O           0.00018067     0.00009178    -0.00036760
    350      4      O          -0.00009902     0.00093002    -0.00052371
    351      4      O           0.00088892    -0.00074142    -0.00042989
    352      4      O          -0.00045105     0.00048279    -0.00026191
    353      4      O          -0.00088742     0.00079550    -0.00053139
    354      4      O          -0.00001017    -0.00077609    -0.00053209
    355      4      O          -0.00023575    -0.00005388    -0.00033689
    356      4      O           0.00049706     0.00073434    -0.00030652
    357      4      O           0.00027743    -0.00041077    -0.00055065
    358      4      O           0.00017881    -0.00011483    -0.00036209
    359      4      O          -0.00115035     0.00093059    -0.00033720
    360      4      O           0.00010454    -0.00066233    -0.00045225
    361      4      O          -0.00073370    -0.00033271    -0.00053461
    362      4      O           0.00108400     0.00053430    -0.00036854
    363      4      O          -0.00016395     0.00020543    -0.00038727
    364      4      O           0.00041445    -0.00049693    -0.00038368
    365      4      O          -0.00098365     0.00029831    -0.01471793
    366      4      O           0.00030908     0.00002365    -0.01473649
    367      4      O          -0.00015562    -0.00029537    -0.01497207
    368      4      O           0.00090315     0.00066851    -0.01464699
    369      4      O          -0.00017855     0.00037939    -0.01465259
    370      4      O          -0.00108706     0.00000450    -0.01490486
    371      4      O           0.00050745     0.00022856    -0.01465526
    372      4      O          -0.00050991    -0.00021016    -0.01466449
    373      4      O           0.00113562     0.00000626    -0.01476036
    374      4      O          -0.00042105     0.00093739    -0.01478285
    375      4      O           0.00045751    -0.00123569    -0.01473483
    376      4      O          -0.00090678    -0.00059974    -0.01472854
    377      4      O           0.00016758     0.00034934    -0.01484902
    378      4      O          -0.00031252    -0.00003428    -0.01466361
    379      4      O           0.00096516    -0.00035280    -0.01466570
    380      4      O          -0.00042793     0.00116860    -0.01490019
    381      4      O           0.00049163    -0.00095984    -0.01493894
    382      4      O          -0.00022644    -0.00111434    -0.01455598
    383      4      O          -0.00054056     0.00033506    -0.01476489
    384      4      O           0.00000857    -0.00000855    -0.01495186
    385      4      O           0.00052088    -0.00033831    -0.01481519
    386      4      O           0.00016667     0.00110610    -0.01464542
    387      4      O           0.00012059    -0.00035484    -0.01479725
    388      4      O          -0.00050103    -0.00031939    -0.00170804
    389      4      O          -0.00024794    -0.00014913    -0.00181068
    390      4      O          -0.00089472    -0.00053934    -0.00237737
    391      4      O           0.00186680     0.00083346    -0.00197323
    392      4      O           0.00013868     0.00195075    -0.00152740
    393      4      O           0.00005497    -0.00068572    -0.00262011
    394      4      O           0.00080583     0.00185445    -0.00186936
    395      4      O          -0.00003959     0.00023294    -0.00132811
    396      4      O          -0.00031707    -0.00133350    -0.00161945
    397      4      O           0.00034397     0.00113054    -0.00191046
    398      4      O           0.00054818    -0.00062775    -0.00183742
    399      4      O           0.00001289    -0.00118622    -0.00174022
    400      4      O          -0.00117184     0.00029472    -0.00195055
    401      4      O           0.00103210     0.00091880    -0.00163008
    402      4      O          -0.00004055    -0.00060015    -0.00155009
    403      4      O          -0.00007372    -0.00052386    -0.00180669
    404      4      O          -0.00061396    -0.00021546    -0.00248568
    405      4      O           0.00029119    -0.00112768    -0.00129151
    406      4      O          -0.00161498    -0.00072018    -0.00172688
    407      4      O          -0.00020279    -0.00082938    -0.00204904
    408      4      O          -0.00013443     0.00022400    -0.00223268
    409      4      O           0.00139622     0.00055152    -0.00186417
    410      4      O          -0.00057515     0.00096743    -0.00187793
    411      4      O          -0.00002465    -0.00016930    -0.00167752
    412      4      O          -0.00108434    -0.00080794    -0.00161049
    413      4      O           0.00090182     0.00033923    -0.00225750
    414      4      O          -0.00021229     0.00094126    -0.00169771
    415      4      O           0.00057253    -0.00059098    -0.00167069
    416      4      O           0.00081723    -0.00006658    -0.00207118
    417      4      O          -0.00053901    -0.00070864    -0.00148283
    418      4      O          -0.00045769     0.00025336    -0.00155727
    419      4      O          -0.00020245     0.00090799    -0.00247088
    420      4      O           0.00108979    -0.00057156    -0.00173906
    421      4      O           0.00014277     0.00008373    -0.00166436
    422      4      O          -0.00142305     0.00102480    -0.00207167
    423      4      O           0.00006476    -0.00068648    -0.00255733
    424      4      O          -0.00000406     0.00012946    -0.00147551
    425      4      O           0.00053804     0.00045666    -0.00156805
    426      4      O          -0.00009757    -0.00029681    -0.00227166
    427      4      O           0.00083928    -0.00060344    -0.00208127
    428      4      O          -0.00147094     0.00109594    -0.00173906
    429      4      O          -0.00030320    -0.00051440    -0.00189198
    430      4      O          -0.00068393    -0.00030472    -0.00224673
    431      4      O           0.00157225     0.00038192    -0.00177031
    432      4      O           0.00004413     0.00005051    -0.00151310
    433      4      O          -0.00006246    -0.00035792    -0.00201535
    434      4      O          -0.00095269     0.00027739     0.00397119
    435      4      O           0.00021282    -0.00001089     0.00413100
    436      4      O          -0.00009877    -0.00020813     0.00250351
    437      4      O           0.00090070     0.00072377     0.00431871
    438      4      O          -0.00012801     0.00038666     0.00480735
    439      4      O          -0.00081545     0.00007439     0.00251220
    440      4      O           0.00057612     0.00034148     0.00477968
    441      4      O          -0.00056644    -0.00024025     0.00467863
    442      4      O           0.00095299    -0.00001384     0.00376904
    443      4      O          -0.00030702     0.00084684     0.00400725
    444      4      O           0.00053674    -0.00121366     0.00395774
    445      4      O          -0.00088692    -0.00048844     0.00379990
    446      4      O           0.00018223     0.00039771     0.00362446
    447      4      O          -0.00021423    -0.00001799     0.00469676
    448      4      O           0.00088142    -0.00042970     0.00454408
    449      4      O          -0.00051185     0.00099368     0.00272375
    450      4      O           0.00045145    -0.00094695     0.00288862
    451      4      O          -0.00029804    -0.00101175     0.00481359
    452      4      O          -0.00064787     0.00022399     0.00406865
    453      4      O          -0.00000941    -0.00007977     0.00271882
    454      4      O           0.00057509    -0.00029141     0.00355144
    455      4      O           0.00016750     0.00099341     0.00408119
    456      4      O           0.00004170    -0.00028221     0.00385280
    457      4      O          -0.00512233    -0.00548021    -0.00531851
    458      4      O           0.00667366     0.01696623    -0.03011956
    459      4      O           0.00245634    -0.00470746     0.00115387
    460      4      O           0.00593279     0.00690290     0.00274127
    461      4      O           0.00094868    -0.00310792     0.01190381
    462      4      O          -0.00362983    -0.01520787    -0.01254635
    463      4      O          -0.00036554     0.00375398     0.00813909
    464      4      O           0.00617635    -0.00244772     0.00326245
    465      4      O           0.00190410     0.00214255     0.01207622
    466      4      O           0.00116131     0.00394155     0.01254698
    467      4      O          -0.01006281    -0.00173165     0.00198838
    468      4      O           0.00940544     0.00135802    -0.00099469
    469      4      O          -0.00074439    -0.00010361     0.01741141
    470      4      O          -0.00004832    -0.00128608     0.00975923
    471      4      O          -0.00645375     0.00078213     0.00477651
    472      4      O          -0.00316233     0.00120997    -0.00527490
    473      4      O           0.00736972     0.01466652     0.00010682
    474      4      O           0.00111595    -0.00114475     0.00621444
    475      4      O          -0.00207323     0.00311583     0.00920443
    476      4      O          -0.00768513    -0.00162064    -0.00100933
    477      4      O          -0.00158523    -0.00514290     0.00549793
    478      4      O          -0.00318168    -0.00999566    -0.03339517
    479      4      O           0.00092429    -0.00110587     0.00671061
    480      4      O           0.00570900    -0.00777277     0.00807711
    481      4      O          -0.00008138    -0.00313934     0.00381110
    482      4      O           0.00067438    -0.00015578     0.01050705
    483      4      O          -0.00399339     0.00519358     0.00608718
    484      4      O          -0.00125796     0.00281157     0.00796165
    485      4      O           0.00638230    -0.00177926     0.00908394
    486      4      O          -0.00610744     0.00310635     0.01287986
    487      4      O          -0.00886009     0.00266606     0.00641183
    488      4      O          -0.01754166     0.01251307    -0.02039501
    489      4      O           0.00615021    -0.00536848    -0.00464392
    490      4      O           0.01062419     0.00647405    -0.00831854
    491      4      O          -0.00969047     0.00511623     0.00167444
    492      4      O          -0.00686779     0.01141108    -0.00545213
    493      4      O          -0.00095062    -0.00181880    -0.00563923
    494      4      O           0.00184324     0.00344882     0.00992948
    495      4      O           0.01152291    -0.01444750    -0.00896929
    496      4      O           0.00246592     0.00014150     0.00652326
    497      4      O          -0.01347948     0.00137845    -0.01477836
    498      4      O           0.00260620    -0.00836151     0.00505888
    499      4      O           0.01707335    -0.00853120    -0.02298494
    500      4      O           0.00586232    -0.00091670     0.01222417
    501      4      O           0.00542158    -0.00435058     0.00773725
    502      4      O          -0.00530332     0.00093404     0.01404638
    503      4      O          -0.00134588     0.00010999     0.01461241
    504      4      O           0.00097212     0.00177803     0.01291353
    505      4      O           0.00031551     0.00018440     0.00747984
    506      4      O           0.00211027     0.00117713     0.01503765
    507      4      O           0.00001203    -0.00076689     0.01799171
    508      4      O          -0.00052401     0.00028742     0.00693703
    509      4      O           0.00148163    -0.00062818     0.01688204
    510      4      O          -0.00067267     0.00101558     0.01806043
    511      4      O           0.00069614     0.00045354     0.01149578
    512      4      O          -0.00092641     0.00040422     0.01579299
    513      4      O           0.00002405    -0.00208648     0.01316297
    514      4      O          -0.00047267     0.00123610     0.01411981
    515      4      O           0.00043122    -0.00091875     0.01242515
    516      4      O          -0.00135134     0.00034323     0.01724688
    517      4      O           0.00097065    -0.00166885     0.01580457
    518      4      O           0.00006616     0.00281099     0.00907942
    519      4      O          -0.00019000    -0.00182945     0.00903257
    520      4      O          -0.00132508     0.00014072     0.01548212
    521      4      O          -0.00065080    -0.00083038     0.01509434
    522      4      O          -0.00028941     0.00020818     0.00876211
    523      4      O          -0.00063585    -0.00258930     0.01242612
    524      4      O           0.00118843     0.00267968     0.01263561
    525      4      O           0.00078920    -0.00111713     0.01352978
    526      4      O          -0.01266954    -0.02511800    -0.00586450
    527      4      O          -0.01269743    -0.02514258    -0.00586945
    528      4      O          -0.01270566    -0.02514174    -0.00585278
    529      4      O          -0.01270778    -0.02515203    -0.00586056
    530      4      O          -0.01268987    -0.02513103    -0.00585112
    531      4      O          -0.01267053    -0.02512221    -0.00586742
    532      4      O          -0.01267189    -0.02512571    -0.00585559
    533      4      O          -0.01267544    -0.02513415    -0.00586730
    534      4      O          -0.01270663    -0.02515350    -0.00585888
    535      4      O           0.03125943     0.04534437     0.02545636
    536      4      O           0.03129837     0.04536949     0.02545603
    537      4      O           0.03127618     0.04535404     0.02544415
    538      4      O           0.03129546     0.04537331     0.02545280
    539      4      O           0.03125782     0.04534962     0.02544905
    540      4      O           0.03127075     0.04535230     0.02546109
    541      4      O           0.03125868     0.04533824     0.02545268
    542      4      O           0.03129071     0.04535958     0.02546162
    543      4      O           0.03129441     0.04536787     0.02544849
    544      4      O          -0.00937595     0.00703543    -0.00308233
    545      4      O          -0.00935194     0.00706367    -0.00308625
    546      4      O          -0.00936444     0.00705423    -0.00310240
    547      4      O          -0.00935125     0.00707119    -0.00309574
    548      4      O          -0.00937397     0.00704343    -0.00309219
    549      4      O          -0.00937052     0.00704337    -0.00307979
    550      4      O          -0.00937837     0.00703334    -0.00308771
    551      4      O          -0.00936079     0.00705315    -0.00308021
    552      4      O          -0.00935514     0.00706549    -0.00309842
    553      4      O           0.00778059    -0.01119495    -0.04108422
    554      4      O           0.00774695    -0.01121524    -0.04113991
    555      4      O           0.00774699    -0.01122658    -0.04104493
    556      4      O           0.00774087    -0.01122841    -0.04111013
    557      4      O           0.00776371    -0.01121877    -0.04102328
    558      4      O           0.00777640    -0.01119659    -0.04110657
    559      4      O           0.00777674    -0.01120736    -0.04104508
    560      4      O           0.00776796    -0.01120215    -0.04114273
    561      4      O           0.00774044    -0.01123076    -0.04108407
    562      4      O           0.03131568     0.00665434     0.01870881
    563      4      O           0.03133026     0.00666526     0.01870386
    564      4      O           0.03129505     0.00663949     0.01870046
    565      4      O           0.03131391     0.00665860     0.01870100
    566      4      O           0.03129051     0.00664032     0.01870408
    567      4      O           0.03132514     0.00666752     0.01871023
    568      4      O           0.03130301     0.00664275     0.01870763
    569      4      O           0.03133316     0.00666924     0.01870863
    570      4      O           0.03130538     0.00664520     0.01869944
    571      4      O          -0.03507225     0.02414842    -0.01052783
    572      4      O          -0.03506832     0.02415600    -0.01059049
    573      4      O          -0.03510516     0.02413039    -0.01057397
    574      4      O          -0.03508146     0.02414645    -0.01059088
    575      4      O          -0.03509747     0.02412775    -0.01054086
    576      4      O          -0.03506208     0.02415638    -0.01053688
    577      4      O          -0.03508511     0.02413442    -0.01053366
    578      4      O          -0.03505542     0.02415634    -0.01055875
    579      4      O          -0.03509067     0.02413564    -0.01059262
    580      4      O           0.03287278    -0.09566739     0.07620913
    581      4      O           0.03285962    -0.09566260     0.07619958
    582      4      O           0.03283907    -0.09568007     0.07620328
    583      4      O           0.03284831    -0.09566982     0.07619906
    584      4      O           0.03285014    -0.09568182     0.07620834
    585      4      O           0.03287706    -0.09565986     0.07620716
    586      4      O           0.03286624    -0.09568037     0.07621021
    587      4      O           0.03287659    -0.09566181     0.07620334
    588      4      O           0.03284441    -0.09568015     0.07620146
    589      4      O          -0.02277608     0.08952107    -0.05044486
    590      4      O          -0.02274937     0.08953770    -0.05049225
    591      4      O          -0.02278278     0.08951581    -0.05048712
    592      4      O          -0.02276205     0.08953221    -0.05049825
    593      4      O          -0.02279302     0.08950870    -0.05045818
    594      4      O          -0.02276506     0.08953299    -0.05045007
    595      4      O          -0.02278317     0.08950659    -0.05044676
    596      4      O          -0.02275279     0.08953463    -0.05046424
    597      4      O          -0.02276778     0.08952000    -0.05049425
    598      4      O          -0.00129446    -0.05386160    -0.01680887
    599      4      O          -0.00137733    -0.05388920    -0.01674391
    600      4      O          -0.00124237    -0.05380352    -0.01676464
    601      4      O          -0.00132833    -0.05387266    -0.01673150
    602      4      O          -0.00122303    -0.05380739    -0.01678260
    603      4      O          -0.00132352    -0.05389716    -0.01679494
    604      4      O          -0.00122517    -0.05383209    -0.01681232
    605      4      O          -0.00136177    -0.05390824    -0.01677557
    606      4      O          -0.00128354    -0.05383949    -0.01674343
    607      4      O           0.00138375     0.05354108     0.01625698
    608      4      O           0.00135595     0.05353263     0.01619817
    609      4      O           0.00126480     0.05347681     0.01622445
    610      4      O           0.00131607     0.05351088     0.01619948
    611      4      O           0.00129638     0.05348357     0.01625414
    612      4      O           0.00139920     0.05355832     0.01624177
    613      4      O           0.00134408     0.05349971     0.01625586
    614      4      O           0.00141200     0.05355356     0.01621998
    615      4      O           0.00128928     0.05348211     0.01620536
    616      4      O          -0.00780185     0.00276347     0.03269387
    617      4      O          -0.00780081     0.00279065     0.03259471
    618      4      O          -0.00784454     0.00272168     0.03265614
    619      4      O          -0.00782359     0.00276219     0.03260701
    620      4      O          -0.00783955     0.00272070     0.03270327
    621      4      O          -0.00779157     0.00278906     0.03266321
    622      4      O          -0.00782141     0.00272848     0.03271434
    623      4      O          -0.00778715     0.00279370     0.03263657
    624      4      O          -0.00783329     0.00274042     0.03262477
    625      4      O           0.00924587    -0.00282146    -0.02908165
    626      4      O           0.00919226    -0.00289736    -0.02879779
    627      4      O           0.00931456    -0.00279559    -0.02879930
    628      4      O           0.00923085    -0.00289092    -0.02873907
    629      4      O           0.00932730    -0.00278282    -0.02887880
    630      4      O           0.00922288    -0.00285696    -0.02905290
    631      4      O           0.00930903    -0.00278270    -0.02905475
    632      4      O           0.00918367    -0.00288993    -0.02899006
    633      4      O           0.00927851    -0.00283678    -0.02872036
    634      4      O           0.01955248    -0.02151743     0.02681708
    635      4      O           0.01947028    -0.02156843     0.02678796
    636      4      O           0.01949274    -0.02156560     0.02685081
    637      4      O           0.01945846    -0.02158525     0.02681787
    638      4      O           0.01952552    -0.02153928     0.02685977
    639      4      O           0.01952650    -0.02152564     0.02680235
    640      4      O           0.01955331    -0.02152852     0.02684834
    641      4      O           0.01950971    -0.02154803     0.02679268
    642      4      O           0.01947279    -0.02158625     0.02683200
    643      4      O          -0.01756158     0.01534433    -0.00711524
    644      4      O          -0.01767048     0.01526250    -0.00713201
    645      4      O          -0.01761568     0.01528869    -0.00695319
    646      4      O          -0.01766234     0.01524588    -0.00708572
    647      4      O          -0.01756781     0.01531098    -0.00695146
    648      4      O          -0.01757741     0.01532177    -0.00714310
    649      4      O          -0.01754200     0.01533359    -0.00702316
    650      4      O          -0.01762095     0.01529229    -0.00720834
    651      4      O          -0.01765238     0.01525864    -0.00700815
    652      4      O           0.03682185    -0.10865609     0.04206935
    653      4      O           0.03674817    -0.10869827     0.04208742
    654      4      O           0.03681490    -0.10869894     0.04212990
    655      4      O           0.03677165    -0.10872817     0.04211486
    656      4      O           0.03684112    -0.10868158     0.04212110
    657      4      O           0.03680801    -0.10866965     0.04206682
    658      4      O           0.03685565    -0.10867411     0.04209544
    659      4      O           0.03677790    -0.10868843     0.04206375
    660      4      O           0.03678749    -0.10871567     0.04212354
    661      4      O          -0.03676632     0.11410872    -0.04739414
    662      4      O          -0.03685576     0.11406863    -0.04745439
    663      4      O          -0.03688449     0.11403520    -0.04726775
    664      4      O          -0.03688561     0.11402464    -0.04737120
    665      4      O          -0.03683838     0.11405949    -0.04726164
    666      4      O          -0.03678584     0.11410301    -0.04742208
    667      4      O          -0.03678941     0.11406785    -0.04729462
    668      4      O          -0.03678951     0.11408124    -0.04746729
    669      4      O          -0.03688627     0.11402645    -0.04733607
    670      4      O          -0.00103842    -0.05405255    -0.01573724
    671      4      O          -0.00071076    -0.05378318    -0.01572225
    672      4      O          -0.00068410    -0.05383784    -0.01590707
    673      4      O          -0.00058203    -0.05372071    -0.01576124
    674      4      O          -0.00074376    -0.05396964    -0.01591664
    675      4      O          -0.00097373    -0.05406080    -0.01573122
    676      4      O          -0.00095281    -0.05406275    -0.01588144
    677      4      O          -0.00088278    -0.05387469    -0.01565550
    678      4      O          -0.00052270    -0.05378710    -0.01589605
    679      4      O           0.00316167     0.05299403     0.01706979
    680      4      O           0.00278647     0.05279646     0.01710469
    681      4      O           0.00310478     0.05288206     0.01725646
    682      4      O           0.00287236     0.05271889     0.01716027
    683      4      O           0.00320381     0.05297575     0.01722489
    684      4      O           0.00309753     0.05292264     0.01706540
    685      4      O           0.00331953     0.05297356     0.01716424
    686      4      O           0.00294439     0.05281662     0.01702065
    687      4      O           0.00291800     0.05282096     0.01720967
    688      4      O          -0.01032712     0.00386260     0.02759493
    689      4      O          -0.01049148     0.00366204     0.02766494
    690      4      O          -0.01039829     0.00367782     0.02797016
    691      4      O          -0.01049083     0.00357955     0.02786906
    692      4      O          -0.01034156     0.00378186     0.02789214
    693      4      O          -0.01037364     0.00380845     0.02760240
    694      4      O          -0.01030181     0.00381969     0.02780417
    695      4      O          -0.01042264     0.00372934     0.02758105
    696      4      O          -0.01045966     0.00361652     0.02789898
    697      4      O           0.00809812    -0.00431188    -0.02918260
    698      4      O           0.00846226    -0.00401917    -0.02865364
    699      4      O           0.00841581    -0.00395325    -0.02958003
    700      4      O           0.00857039    -0.00399755    -0.02866936
    701      4      O           0.00828151    -0.00404606    -0.02997351
    702      4      O           0.00813556    -0.00422223    -0.02912067
    703      4      O           0.00811684    -0.00412723    -0.02987875
    704      4      O           0.00830766    -0.00421170    -0.02845429
    705      4      O           0.00853818    -0.00385860    -0.02962486
    706      4      O           0.01982890    -0.01662442     0.00818380
    707      4      O           0.01978829    -0.01673261     0.00835273
    708      4      O           0.02009243    -0.01650734     0.00832952
    709      4      O           0.01992617    -0.01665940     0.00841746
    710      4      O           0.02004944    -0.01652688     0.00827660
    711      4      O           0.01980901    -0.01672430     0.00821803
    712      4      O           0.02003098    -0.01656126     0.00819660
    713      4      O           0.01975859    -0.01673292     0.00827759
    714      4      O           0.02001977    -0.01662151     0.00838882
    715      4      O          -0.02074572     0.01834647    -0.00737346
    716      4      O          -0.02073322     0.01830641    -0.00666256
    717      4      O          -0.02046663     0.01855546    -0.00701077
    718      4      O          -0.02061861     0.01833057    -0.00667787
    719      4      O          -0.02044242     0.01855617    -0.00712754
    720      4      O          -0.02076803     0.01829655    -0.00726945
    721      4      O          -0.02058146     0.01848136    -0.00749048
    722      4      O          -0.02085707     0.01822330    -0.00707231
    723      4      O          -0.02047185     0.01852834    -0.00667271
    724      4      O           0.03675936    -0.11193657     0.04901337
    725      4      O           0.03684389    -0.11197081     0.04919965
    726      4      O           0.03697161    -0.11180671     0.04903993
    727      4      O           0.03694631    -0.11196658     0.04919810
    728      4      O           0.03697343    -0.11183787     0.04900009
    729      4      O           0.03675905    -0.11198269     0.04905598
    730      4      O           0.03684114    -0.11184558     0.04893563
    731      4      O           0.03675262    -0.11201771     0.04913959
    732      4      O           0.03702177    -0.11187369     0.04912217
    733      4      O          -0.03540782     0.11127447    -0.04778214
    734      4      O          -0.03562438     0.11116703    -0.04733454
    735      4      O          -0.03518669     0.11135079    -0.04745463
    736      4      O          -0.03545210     0.11110104    -0.04718667
    737      4      O          -0.03520976     0.11137107    -0.04758173
    738      4      O          -0.03543069     0.11121647    -0.04774966
    739      4      O          -0.03512319     0.11136186    -0.04783956
    740      4      O          -0.03556252     0.11109962    -0.04752868
    741      4      O          -0.03536240     0.11126571    -0.04728511
    742      4      O          -0.00125809    -0.05400426    -0.01455324
    743      4      O          -0.00063837    -0.05384012    -0.01508705
    744      4      O          -0.00161569    -0.05502919    -0.01516739
    745      4      O          -0.00051379    -0.05423117    -0.01565437
    746      4      O          -0.00200299    -0.05437995    -0.01487081
    747      4      O          -0.00073811    -0.05419931    -0.01466391
    748      4      O          -0.00185970    -0.05481061    -0.01459666
    749      4      O          -0.00030434    -0.05363208    -0.01525856
    750      4      O          -0.00159371    -0.05408403    -0.01524126
    751      4      O           0.00047561     0.05287404     0.01784975
    752      4      O           0.00068236     0.05332429     0.01838954
    753      4      O           0.00139088     0.05369833     0.01782464
    754      4      O           0.00112723     0.05322763     0.01836022
    755      4      O           0.00152394     0.05378104     0.01785060
    756      4      O           0.00032581     0.05307316     0.01781197
    757      4      O           0.00088341     0.05345095     0.01746965
    758      4      O           0.00027455     0.05260062     0.01817419
    759      4      O           0.00167893     0.05396249     0.01823763
    760      4      O          -0.00907408     0.00366452     0.02728929
    761      4      O          -0.00896720     0.00348813     0.02816759
    762      4      O          -0.00856791     0.00420961     0.02728077
    763      4      O          -0.00882104     0.00364693     0.02817225
    764      4      O          -0.00866589     0.00403140     0.02724288
    765      4      O          -0.00904611     0.00350966     0.02741991
    766      4      O          -0.00874590     0.00405208     0.02677853
    767      4      O          -0.00917241     0.00335181     0.02791730
    768      4      O          -0.00862863     0.00387716     0.02784919
    769      4      O           0.00735683    -0.00230059    -0.03149006
    770      4      O           0.00822381    -0.00175839    -0.03387681
    771      4      O           0.00729668    -0.00249032    -0.03537369
    772      4      O           0.00817728    -0.00140333    -0.03619213
    773      4      O           0.00671818    -0.00321607    -0.03260403
    774      4      O           0.00788706    -0.00229761    -0.03256419
    775      4      O           0.00685462    -0.00305399    -0.03252691
    776      4      O           0.00825722    -0.00119988    -0.03364035
    777      4      O           0.00712950    -0.00272912    -0.03379652
    778      4      O           0.01646739    -0.01582728     0.00850740
    779      4      O           0.01738230    -0.01531323     0.00864731
    780      4      O           0.01693394    -0.01555964     0.00802665
    781      4      O           0.01737811    -0.01509567     0.00850788
    782      4      O           0.01698087    -0.01566706     0.00811918
    783      4      O           0.01670676    -0.01601649     0.00860409
    784      4      O           0.01653335    -0.01609745     0.00809499
    785      4      O           0.01695487    -0.01537218     0.00874767
    786      4      O           0.01760454    -0.01526578     0.00822963
    787      4      O          -0.02159799     0.02030235    -0.02446718
    788      4      O          -0.02056908     0.02149252    -0.02437176
    789      4      O          -0.02102392     0.02105481    -0.02530345
    790      4      O          -0.02026958     0.02124892    -0.02419252
    791      4      O          -0.02148317     0.02060691    -0.02585822
    792      4      O          -0.02148045     0.02088685    -0.02437434
    793      4      O          -0.02186181     0.02079746    -0.02543666
    794      4      O          -0.02081071     0.02100991    -0.02363228
    795      4      O          -0.02075787     0.02144715    -0.02599316
    796      4      O           0.03751446    -0.11498527     0.04903683
    797      4      O           0.03807420    -0.11437611     0.04873649
    798      4      O           0.03757735    -0.11433551     0.04839738
    799      4      O           0.03832733    -0.11427851     0.04859495
    800      4      O           0.03722073    -0.11464735     0.04844807
    801      4      O           0.03771650    -0.11496245     0.04901072
    802      4      O           0.03706358    -0.11470519     0.04869711
    803      4      O           0.03819841    -0.11462436     0.04903074
    804      4      O           0.03758280    -0.11423551     0.04827048
    805      4      O          -0.03899430     0.10799525    -0.04070107
    806      4      O          -0.03768998     0.10911327    -0.04105429
    807      4      O          -0.03801086     0.10931928    -0.04228409
    808      4      O          -0.03789033     0.10893052    -0.04052252
    809      4      O          -0.03801566     0.10840937    -0.04251239
    810      4      O          -0.03862645     0.10832336    -0.04187739
    811      4      O          -0.03862756     0.10876091    -0.04268950
    812      4      O          -0.03881919     0.10814635    -0.03928690
    813      4      O          -0.03735621     0.10891621    -0.04191298
    814      4      O          -0.02592817    -0.04801541    -0.02212275
    815      4      O          -0.02897293    -0.04490992    -0.02282559
    816      4      O          -0.03245781    -0.04636693    -0.02139233
    817      4      O          -0.03449067    -0.04991938    -0.02424711
    818      4      O          -0.02795275    -0.04412278    -0.02474858
    819      4      O          -0.02605004    -0.04099194    -0.02086771
    820      4      O          -0.02671683    -0.04304958    -0.02135938
    821      4      O          -0.03096305    -0.05310801    -0.02479064
    822      4      O          -0.03094929    -0.04716413    -0.02636622
    823      4      O           0.00993396     0.02784873     0.00785993
    824      4      O           0.01187671     0.02913856     0.00779876
    825      4      O           0.01059824     0.02884954     0.00685839
    826      4      O           0.01329696     0.03060729     0.00678833
    827      4      O           0.00822071     0.02993210     0.00541475
    828      4      O           0.00949442     0.02798617     0.00840889
    829      4      O           0.00724096     0.02727469     0.00777892
    830      4      O           0.01285084     0.02871090     0.00828290
    831      4      O           0.00893104     0.02982148     0.00544241
    832      4      O          -0.00809518     0.01019216     0.04100477
    833      4      O          -0.00647374     0.01180340     0.03822228
    834      4      O          -0.00771652     0.01107536     0.03632532
    835      4      O          -0.00582063     0.01217294     0.03890684
    836      4      O          -0.00770799     0.00948125     0.03723889
    837      4      O          -0.00878862     0.00889821     0.04126406
    838      4      O          -0.00957565     0.00872233     0.03766300
    839      4      O          -0.00684454     0.01114911     0.04158529
    840      4      O          -0.00686157     0.01008750     0.03529569
    841      4      O           0.00898830    -0.01539653     0.00928618
    842      4      O          -0.00416083     0.00535873     0.00169927
    843      4      O           0.01826904     0.00497127     0.01615557
    844      4      O           0.02690956    -0.00112893    -0.01080200
    845      4      O           0.00582156    -0.01157446     0.01452999
    846      4      O          -0.01060485    -0.01204230    -0.00764782
    847      4      O          -0.00106416    -0.02159141     0.01856020
    848      4      O           0.02266202    -0.01988849    -0.00335757
    849      4      O           0.00655814    -0.00384014     0.01482544
    850      4      O           0.03758492    -0.02569804     0.01280406
    851      4      O           0.03670928    -0.02221169     0.01205922
    852      4      O           0.03456042    -0.02685360     0.01128607
    853      4      O           0.03486851    -0.02497787     0.00954656
    854      4      O           0.03410851    -0.02356981     0.01242009
    855      4      O           0.03830204    -0.02427797     0.01361179
    856      4      O           0.03652654    -0.02632694     0.01336514
    857      4      O           0.03733505    -0.02420255     0.01032342
    858      4      O           0.03393896    -0.02158971     0.01119613
    859      4      O          -0.02851417    -0.00633015    -0.00639736
    860      4      O          -0.03586731    -0.00080451    -0.01737983
    861      4      O          -0.01860675     0.00402328    -0.02072660
    862      4      O          -0.01744669    -0.00775367    -0.02460513
    863      4      O          -0.02936354    -0.00627168    -0.00781533
    864      4      O          -0.03264012    -0.00826946    -0.01203169
    865      4      O          -0.02611448    -0.00157723    -0.00607208
    866      4      O          -0.02347546    -0.01192841    -0.01344577
    867      4      O          -0.03329943    -0.00138690    -0.01094537
    868      4      O           0.02445073    -0.08763797     0.05238091
    869      4      O           0.02617815    -0.08960787     0.05117070
    870      4      O           0.02448005    -0.09154078     0.05168904
    871      4      O           0.02489869    -0.09187072     0.04997724
    872      4      O           0.02283501    -0.08847474     0.05264216
    873      4      O           0.02735843    -0.09008075     0.05183924
    874      4      O           0.02498406    -0.08947880     0.05268645
    875      4      O           0.02490252    -0.08934607     0.05022549
    876      4      O           0.02318855    -0.08878125     0.05144855
    877      4      O          -0.03710453     0.09348801    -0.06842197
    878      4      O          -0.03481602     0.09615805    -0.06513882
    879      4      O          -0.03305662     0.10174665    -0.07200171
    880      4      O          -0.03400912     0.10209430    -0.08306281
    881      4      O          -0.03545113     0.09643203    -0.06612375
    882      4      O          -0.03596884     0.09478063    -0.06559517
    883      4      O          -0.03478681     0.09464581    -0.06413856
    884      4      O          -0.03559455     0.09368419    -0.07918581
    885      4      O          -0.03319036     0.09501284    -0.06540717
 SUM OF ATOMIC FORCES           0.01128256     0.01907749     0.12952274     0.13140543

 STRESS| Analytical stress tensor [GPa]
 STRESS|                        x                   y                   z
 STRESS|      x        7.08137629270E+00  -1.72267567771E+01   1.49312751849E+00
 STRESS|      y       -1.72267567771E+01   2.31017919073E+01  -3.66296628866E-02
 STRESS|      z        1.49312751849E+00  -3.66296628866E-02   6.66143358823E+00
 STRESS| 1/3 Trace                                             1.22815339294E+01
 STRESS| Determinant                                          -9.36723201406E+02

 STRESS| Eigenvectors and eigenvalues of the analytical stress tensor [GPa]
 STRESS|                        1                   2                   3
 STRESS| Eigenvalues  -4.05002754178E+00   6.77966781154E+00   3.41149615185E+01
 STRESS|      x           0.838845798844      0.080768286202     -0.538343951119
 STRESS|      y           0.532059226240      0.087472974486      0.842176619545
 STRESS|      z          -0.115111708941      0.992887185273     -0.030402825299

 -------------------------------------------------------------------------------
 -                                                                             -
 -                                DBCSR STATISTICS                             -
 -                                                                             -
 -------------------------------------------------------------------------------
 COUNTER                                    TOTAL       BLAS       SMM       ACC
 flops    20 x    20 x  1853              4447200       0.0%    100.0%      0.0%     
 flops    14 x    20 x    20              4636800       0.0%    100.0%      0.0%     
 flops    20 x    20 x  1842              8841600       0.0%    100.0%      0.0%     
 flops    20 x    20 x  1855             17808000       0.0%    100.0%      0.0%     
 flops    26 x    20 x    20             31075200       0.0%    100.0%      0.0%     
 flops    13 x    20 x    20             35380800       0.0%    100.0%      0.0%     
 flops    20 x    32 x  1853            391353600       0.0%    100.0%      0.0%     
 flops    32 x    20 x  1853            391353600       0.0%    100.0%      0.0%     
 flops    14 x    32 x    20            408038400       0.0%    100.0%      0.0%     
 flops    14 x    20 x    32            408038400       0.0%    100.0%      0.0%     
 flops    20 x    32 x  1842            778060800       0.0%    100.0%      0.0%     
 flops    32 x    20 x  1842            778060800       0.0%    100.0%      0.0%     
 flops    20 x    32 x  1855           1567104000       0.0%    100.0%      0.0%     
 flops    32 x    20 x  1855           1567104000       0.0%    100.0%      0.0%     
 flops    26 x    32 x    20           2734617600       0.0%    100.0%      0.0%     
 flops    26 x    20 x    32           2734617600       0.0%    100.0%      0.0%     
 flops    13 x    32 x    20           3113510400       0.0%    100.0%      0.0%     
 flops    13 x    20 x    32           3113510400       0.0%    100.0%      0.0%     
 flops    14 x    20 x    14           9891453600       0.0%    100.0%      0.0%     
 flops   144 x   416 x  1853          28416540672       0.0%    100.0%      0.0%     
 flops   144 x   436 x  1853          29782720512       0.0%    100.0%      0.0%     
 flops   156 x   416 x  1853          30784585728       0.0%    100.0%      0.0%     
 flops   144 x   416 x   416          30851039232       0.0%    100.0%      0.0%     
 flops   157 x   416 x  1853          30981922816       0.0%    100.0%      0.0%     
 flops    84 x   416 x   416          31515574272       0.0%    100.0%      0.0%     
 flops   156 x   436 x  1853          32264613888       0.0%    100.0%      0.0%     
 flops   144 x   416 x   436          32334262272       0.0%    100.0%      0.0%     
 flops   144 x   436 x   416          32334262272       0.0%    100.0%      0.0%     
 flops   157 x   436 x  1853          32471438336       0.0%    100.0%      0.0%     
 flops    84 x   416 x   436          33030746112       0.0%    100.0%      0.0%     
 flops    84 x   436 x   416          33030746112       0.0%    100.0%      0.0%     
 flops   156 x   416 x   416          33421959168       0.0%    100.0%      0.0%     
 flops   157 x   416 x   416          33636202496       0.0%    100.0%      0.0%     
 flops    13 x    20 x    14          33706982400       0.0%    100.0%      0.0%     
 flops    14 x    20 x    13          33706982400       0.0%    100.0%      0.0%     
 flops   144 x   436 x   436          33888794112       0.0%    100.0%      0.0%     
 flops    84 x   436 x   436          34618762752       0.0%    100.0%      0.0%     
 flops   156 x   416 x   436          35028784128       0.0%    100.0%      0.0%     
 flops   156 x   436 x   416          35028784128       0.0%    100.0%      0.0%     
 flops   157 x   416 x   436          35253327616       0.0%    100.0%      0.0%     
 flops   157 x   436 x   416          35253327616       0.0%    100.0%      0.0%     
 flops   156 x   436 x   436          36712860288       0.0%    100.0%      0.0%     
 flops   157 x   436 x   436          36948199136       0.0%    100.0%      0.0%     
 flops   195 x   416 x  1853          38480732160       0.0%    100.0%      0.0%     
 flops    26 x    20 x    14          38499115200       0.0%    100.0%      0.0%     
 flops    14 x    20 x    26          38499115200       0.0%    100.0%      0.0%     
 flops   195 x   436 x  1853          40330767360       0.0%    100.0%      0.0%     
 flops   195 x   416 x   416          41777448960       0.0%    100.0%      0.0%     
 flops   195 x   416 x   436          43785980160       0.0%    100.0%      0.0%     
 flops   195 x   436 x   416          43785980160       0.0%    100.0%      0.0%     
 flops   195 x   436 x   436          45891075360       0.0%    100.0%      0.0%     
 flops    14 x    14 x   416          51196454400       0.0%    100.0%      0.0%     
 flops    14 x    14 x   436          53657822400       0.0%    100.0%      0.0%     
 flops   143 x   416 x  1853          56438407168       0.0%    100.0%      0.0%     
 flops   144 x   416 x  1842          56495702016       0.0%    100.0%      0.0%     
 flops   143 x   436 x  1853          59151792128       0.0%    100.0%      0.0%     
 flops   144 x   436 x  1842          59211841536       0.0%    100.0%      0.0%     
 flops   156 x   416 x  1842          61203677184       0.0%    100.0%      0.0%     
 flops   143 x   416 x   416          61273591808       0.0%    100.0%      0.0%     
 flops   157 x   416 x  1842          61596008448       0.0%    100.0%      0.0%     
 flops   156 x   436 x  1842          64146161664       0.0%    100.0%      0.0%     
 flops   143 x   416 x   436          64219437568       0.0%    100.0%      0.0%     
 flops   143 x   436 x   416          64219437568       0.0%    100.0%      0.0%     
 flops    84 x   416 x  1853          64362724608       0.0%    100.0%      0.0%     
 flops   157 x   436 x  1842          64557355008       0.0%    100.0%      0.0%     
 flops   143 x   436 x   436          67306910528       0.0%    100.0%      0.0%     
 flops    84 x   436 x  1853          67457086368       0.0%    100.0%      0.0%     
 flops    32 x    32 x  1853          69504399360       0.0%    100.0%      0.0%     
 flops    14 x    32 x    32          72467619840       0.0%    100.0%      0.0%     
 flops   195 x   416 x  1842          76504596480       0.0%    100.0%      0.0%     
 flops   131 x   416 x  1853          77553475584       0.0%    100.0%      0.0%     
 flops   195 x   436 x  1842          80182702080       0.0%    100.0%      0.0%     
 flops   131 x   436 x  1853          81282008064       0.0%    100.0%      0.0%     
 flops   208 x   416 x  1853          82092228608       0.0%    100.0%      0.0%     
 flops   131 x   416 x   416          84197627904       0.0%    100.0%      0.0%     
 flops   208 x   436 x  1853          86038970368       0.0%    100.0%      0.0%     
 flops   131 x   416 x   436          88245590784       0.0%    100.0%      0.0%     
 flops   131 x   436 x   416          88245590784       0.0%    100.0%      0.0%     
 flops   208 x   416 x   416          89125224448       0.0%    100.0%      0.0%     
 flops   131 x   436 x   436          92488167264       0.0%    100.0%      0.0%     
 flops   208 x   416 x   436          93410091008       0.0%    100.0%      0.0%     
 flops   208 x   436 x   416          93410091008       0.0%    100.0%      0.0%     
 flops   208 x   436 x   436          97900960768       0.0%    100.0%      0.0%     
 flops   274 x   416 x  1853         108140724224       0.0%    100.0%      0.0%     
 flops   143 x   416 x  1842         112206741504       0.0%    100.0%      0.0%     
 flops   274 x   436 x  1853         113339797504       0.0%    100.0%      0.0%     
 flops   144 x   416 x  1855         113788846080       0.0%    100.0%      0.0%     
 flops   274 x   416 x   416         117405343744       0.0%    100.0%      0.0%     
 flops   143 x   436 x  1842         117601296384       0.0%    100.0%      0.0%     
 flops   144 x   436 x  1855         119259463680       0.0%    100.0%      0.0%     
 flops   274 x   416 x   436         123049831424       0.0%    100.0%      0.0%     
 flops   274 x   436 x   416         123049831424       0.0%    100.0%      0.0%     
 flops   156 x   416 x  1855         123271249920       0.0%    100.0%      0.0%     
 flops   157 x   416 x  1855         124061450240       0.0%    100.0%      0.0%     
 flops    84 x   416 x  1842         127961293824       0.0%    100.0%      0.0%     
 flops   274 x   436 x   436         128965688704       0.0%    100.0%      0.0%     
 flops   156 x   436 x  1855         129197752320       0.0%    100.0%      0.0%     
 flops   157 x   436 x  1855         130025943040       0.0%    100.0%      0.0%     
 flops    84 x   436 x  1842         134113279104       0.0%    100.0%      0.0%     
 flops    32 x    32 x  1842         138183598080       0.0%    100.0%      0.0%     
 flops    96 x   416 x   416         144071196672       0.0%    100.0%      0.0%     
 flops    96 x   416 x   436         150997696512       0.0%    100.0%      0.0%     
 flops    96 x   436 x   416         150997696512       0.0%    100.0%      0.0%     
 flops   195 x   416 x  1855         154089062400       0.0%    100.0%      0.0%     
 flops   131 x   416 x  1842         154186186752       0.0%    100.0%      0.0%     
 flops    96 x   436 x   436         158257201152       0.0%    100.0%      0.0%     
 flops    13 x    20 x    13         160016805000       0.0%    100.0%      0.0%     
 flops   195 x   436 x  1855         161497190400       0.0%    100.0%      0.0%     
 flops   131 x   436 x  1842         161598984192       0.0%    100.0%      0.0%     
 flops   208 x   416 x  1842         163209805824       0.0%    100.0%      0.0%     
 flops   208 x   436 x  1842         171056431104       0.0%    100.0%      0.0%     
 flops    13 x    14 x   416         176867471872       0.0%    100.0%      0.0%     
 flops    14 x    13 x   416         176906387840       0.0%    100.0%      0.0%     
 flops   144 x   448 x  1853         183614570496       0.0%    100.0%      0.0%     
 flops    13 x    14 x   436         185370715712       0.0%    100.0%      0.0%     
 flops    14 x    13 x   436         185411502640       0.0%    100.0%      0.0%     
 flops   156 x   448 x  1853         198915784704       0.0%    100.0%      0.0%     
 flops   144 x   416 x   448         199345176576       0.0%    100.0%      0.0%     
 flops   144 x   448 x   416         199345176576       0.0%    100.0%      0.0%     
 flops    26 x    14 x   416         199575317760       0.0%    100.0%      0.0%     
 flops    14 x    26 x   416         199805179392       0.0%    100.0%      0.0%     
 flops   157 x   448 x  1853         200190885888       0.0%    100.0%      0.0%     
 flops    84 x   416 x   448         203639095296       0.0%    100.0%      0.0%     
 flops    84 x   448 x   416         203639095296       0.0%    100.0%      0.0%     
 flops   144 x   436 x   448         208929079296       0.0%    100.0%      0.0%     
 flops   144 x   448 x   436         208929079296       0.0%    100.0%      0.0%     
 flops    26 x    14 x   436         209170284960       0.0%    100.0%      0.0%     
 flops    14 x    26 x   436         209411197632       0.0%    100.0%      0.0%     
 flops    84 x   436 x   448         213429436416       0.0%    100.0%      0.0%     
 flops    84 x   448 x   436         213429436416       0.0%    100.0%      0.0%     
 flops   274 x   416 x  1842         214997532672       0.0%    100.0%      0.0%     
 flops   156 x   416 x   448         215957274624       0.0%    100.0%      0.0%     
 flops   156 x   448 x   416         215957274624       0.0%    100.0%      0.0%     
 flops   157 x   416 x   448         217341616128       0.0%    100.0%      0.0%     
 flops   157 x   448 x   416         217341616128       0.0%    100.0%      0.0%     
 flops   274 x   436 x  1842         225333952512       0.0%    100.0%      0.0%     
 flops   143 x   416 x  1855         225997291520       0.0%    100.0%      0.0%     
 flops   156 x   436 x   448         226339835904       0.0%    100.0%      0.0%     
 flops   156 x   448 x   436         226339835904       0.0%    100.0%      0.0%     
 flops   157 x   436 x   448         227790732288       0.0%    100.0%      0.0%     
 flops   157 x   448 x   436         227790732288       0.0%    100.0%      0.0%     
 flops   143 x   436 x  1855         236862545920       0.0%    100.0%      0.0%     
 flops   209 x   416 x  1853         247460708352       0.0%    100.0%      0.0%     
 flops   195 x   448 x  1853         248644730880       0.0%    100.0%      0.0%     
 flops    84 x   416 x  1855         257728773120       0.0%    100.0%      0.0%     
 flops   209 x   436 x  1853         259357857792       0.0%    100.0%      0.0%     
 flops    32 x   416 x   416         264130527232       0.0%    100.0%      0.0%     
 flops   209 x   416 x   416         268661133312       0.0%    100.0%      0.0%     
 flops   195 x   416 x   448         269946593280       0.0%    100.0%      0.0%     
 flops   195 x   448 x   416         269946593280       0.0%    100.0%      0.0%     
 flops    84 x   436 x  1855         270119579520       0.0%    100.0%      0.0%     
 flops    32 x   416 x   436         276829110272       0.0%    100.0%      0.0%     
 flops    32 x   436 x   416         276829110272       0.0%    100.0%      0.0%     
 flops   235 x   416 x  1853         278245294080       0.0%    100.0%      0.0%     
 flops    32 x    32 x  1855         278317670400       0.0%    100.0%      0.0%     
 flops   209 x   416 x   436         281577533952       0.0%    100.0%      0.0%     
 flops   209 x   436 x   416         281577533952       0.0%    100.0%      0.0%     
 flops   195 x   436 x   448         282924794880       0.0%    100.0%      0.0%     
 flops   195 x   448 x   436         282924794880       0.0%    100.0%      0.0%     
 flops    32 x   436 x   436         290138202112       0.0%    100.0%      0.0%     
 flops   235 x   436 x  1853         291622471680       0.0%    100.0%      0.0%     
 flops   248 x   416 x  1853         293637586944       0.0%    100.0%      0.0%     
 flops    96 x   416 x  1853         294229598208       0.0%    100.0%      0.0%     
 flops   209 x   436 x   436         295114915392       0.0%    100.0%      0.0%     
 flops   235 x   416 x   416         302083092480       0.0%    100.0%      0.0%     
 flops   248 x   436 x  1853         307754778624       0.0%    100.0%      0.0%     
 flops    96 x   436 x  1853         308375251968       0.0%    100.0%      0.0%     
 flops    26 x    20 x    13         310363632800       0.0%    100.0%      0.0%     
 flops    13 x    20 x    26         310363632800       0.0%    100.0%      0.0%     
 flops   131 x   416 x  1855         310548725760       0.0%    100.0%      0.0%     
 flops   235 x   416 x   436         316606318080       0.0%    100.0%      0.0%     
 flops   235 x   436 x   416         316606318080       0.0%    100.0%      0.0%     
 flops   248 x   416 x   416         318794072064       0.0%    100.0%      0.0%     
 flops   131 x   436 x  1855         325478952960       0.0%    100.0%      0.0%     
 flops   208 x   416 x  1855         328723333120       0.0%    100.0%      0.0%     
 flops    14 x    14 x   448         330807859200       0.0%    100.0%      0.0%     
 flops   235 x   436 x   436         331827775680       0.0%    100.0%      0.0%     
 flops   248 x   416 x   436         334120710144       0.0%    100.0%      0.0%     
 flops   248 x   436 x   416         334120710144       0.0%    100.0%      0.0%     
 flops   208 x   436 x  1855         344527339520       0.0%    100.0%      0.0%     
 flops   248 x   436 x   436         350184205824       0.0%    100.0%      0.0%     
 flops    26 x    20 x    26         359204362400       0.0%    100.0%      0.0%     
 flops   261 x   416 x  1853         360534859776       0.0%    100.0%      0.0%     
 flops   143 x   448 x  1853         364678938624       0.0%    100.0%      0.0%     
 flops   144 x   448 x  1842         365049151488       0.0%    100.0%      0.0%     
 flops   261 x   436 x  1853         377868266496       0.0%    100.0%      0.0%     
 flops   261 x   416 x   416         391422560256       0.0%    100.0%      0.0%     
 flops   156 x   448 x  1842         395469914112       0.0%    100.0%      0.0%     
 flops   143 x   448 x   416         395921670144       0.0%    100.0%      0.0%     
 flops   143 x   416 x   448         395921670144       0.0%    100.0%      0.0%     
 flops   157 x   448 x  1842         398004977664       0.0%    100.0%      0.0%     
 flops   261 x   416 x   436         410240952576       0.0%    100.0%      0.0%     
 flops   261 x   436 x   416         410240952576       0.0%    100.0%      0.0%     
 flops   143 x   448 x   436         414956365824       0.0%    100.0%      0.0%     
 flops   143 x   436 x   448         414956365824       0.0%    100.0%      0.0%     
 flops    84 x   448 x  1853         415882220544       0.0%    100.0%      0.0%     
 flops   261 x   436 x   436         429964075296       0.0%    100.0%      0.0%     
 flops   274 x   416 x  1855         433029775360       0.0%    100.0%      0.0%     
 flops   274 x   436 x  1855         453848514560       0.0%    100.0%      0.0%     
 flops    26 x    32 x    32         485668085760       0.0%    100.0%      0.0%     
 flops   209 x   416 x  1842         491983405056       0.0%    100.0%      0.0%     
 flops   195 x   448 x  1842         494337392640       0.0%    100.0%      0.0%     
 flops   131 x   448 x  1853         501114765312       0.0%    100.0%      0.0%     
 flops   209 x   436 x  1842         515636453376       0.0%    100.0%      0.0%     
 flops   208 x   448 x  1853         530442092544       0.0%    100.0%      0.0%     
 flops    32 x   416 x  1853         539420930048       0.0%    100.0%      0.0%     
 flops   131 x   416 x   448         544046211072       0.0%    100.0%      0.0%     
 flops   131 x   448 x   416         544046211072       0.0%    100.0%      0.0%     
 flops    13 x    32 x    32         552959447040       0.0%    100.0%      0.0%     
 flops   235 x   416 x  1842         553187082240       0.0%    100.0%      0.0%     
 flops    32 x   436 x  1853         565354628608       0.0%    100.0%      0.0%     
 flops   131 x   436 x   448         570202278912       0.0%    100.0%      0.0%     
 flops   131 x   448 x   436         570202278912       0.0%    100.0%      0.0%     
 flops   208 x   416 x   448         575886065664       0.0%    100.0%      0.0%     
 flops   208 x   448 x   416         575886065664       0.0%    100.0%      0.0%     
 flops   235 x   436 x  1842         579782615040       0.0%    100.0%      0.0%     
 flops   248 x   416 x  1842         583788920832       0.0%    100.0%      0.0%     
 flops    96 x   416 x  1842         584965914624       0.0%    100.0%      0.0%     
 flops   208 x   436 x   448         603572895744       0.0%    100.0%      0.0%     
 flops   208 x   448 x   436         603572895744       0.0%    100.0%      0.0%     
 flops   248 x   436 x  1842         611855695872       0.0%    100.0%      0.0%     
 flops    96 x   436 x  1842         613089275904       0.0%    100.0%      0.0%     
 flops   274 x   448 x  1853         698755448832       0.0%    100.0%      0.0%     
 flops   261 x   416 x  1842         716789219328       0.0%    100.0%      0.0%     
 flops   143 x   448 x  1842         725028175872       0.0%    100.0%      0.0%     
 flops   144 x   448 x  1855         735251005440       0.0%    100.0%      0.0%     
 flops   261 x   436 x  1842         751250239488       0.0%    100.0%      0.0%     
 flops   274 x   416 x   448         758619144192       0.0%    100.0%      0.0%     
 flops   274 x   448 x   416         758619144192       0.0%    100.0%      0.0%     
 flops   274 x   436 x   448         795091218432       0.0%    100.0%      0.0%     
 flops   274 x   448 x   436         795091218432       0.0%    100.0%      0.0%     
 flops   156 x   448 x  1855         796521922560       0.0%    100.0%      0.0%     
 flops   157 x   448 x  1855         801627832320       0.0%    100.0%      0.0%     
 flops    84 x   448 x  1842         826826821632       0.0%    100.0%      0.0%     
 flops    13 x    13 x   416         870535905408       0.0%    100.0%      0.0%     
 flops    64 x   416 x   416         888439046144       0.0%    100.0%      0.0%     
 flops    13 x    13 x   436         912388593168       0.0%    100.0%      0.0%     
 flops    96 x   448 x   416         930921578496       0.0%    100.0%      0.0%     
 flops    96 x   416 x   448         930921578496       0.0%    100.0%      0.0%     
 flops    64 x   416 x   436         931152461824       0.0%    100.0%      0.0%     
 flops    64 x   436 x   416         931152461824       0.0%    100.0%      0.0%     
 flops    96 x   448 x   436         975677423616       0.0%    100.0%      0.0%     
 flops    96 x   436 x   448         975677423616       0.0%    100.0%      0.0%     
 flops    64 x   436 x   436         975919407104       0.0%    100.0%      0.0%     
 flops   209 x   416 x  1855         990911201280       0.0%    100.0%      0.0%     
 flops   195 x   448 x  1855         995652403200       0.0%    100.0%      0.0%     
 flops   131 x   448 x  1842         996279975936       0.0%    100.0%      0.0%     
 flops   209 x   436 x  1855        1038551162880       0.0%    100.0%      0.0%     
 flops   208 x   448 x  1842        1054586437632       0.0%    100.0%      0.0%     
 flops    32 x   416 x  1842        1072437510144       0.0%    100.0%      0.0%     
 flops   235 x   416 x  1855        1114182451200       0.0%    100.0%      0.0%     
 flops    32 x   436 x  1842        1123997005824       0.0%    100.0%      0.0%     
 flops    13 x    14 x   448        1142835972096       0.0%    100.0%      0.0%     
 flops    14 x    13 x   448        1143087429120       0.0%    100.0%      0.0%     
 flops   235 x   436 x  1855        1167748915200       0.0%    100.0%      0.0%     
 flops   248 x   416 x  1855        1175818076160       0.0%    100.0%      0.0%     
 flops    96 x   416 x  1855        1178188677120       0.0%    100.0%      0.0%     
 flops   248 x   436 x  1855        1232347791360       0.0%    100.0%      0.0%     
 flops    96 x   436 x  1855        1234832363520       0.0%    100.0%      0.0%     
 flops   144 x   448 x   448        1288076525568       0.0%    100.0%      0.0%     
 flops    26 x    14 x   448        1289563591680       0.0%    100.0%      0.0%     
 flops    14 x    26 x   448        1291048851456       0.0%    100.0%      0.0%     
 flops    84 x   448 x   448        1315821846528       0.0%    100.0%      0.0%     
 flops   274 x   448 x  1842        1389214826496       0.0%    100.0%      0.0%     
 flops   156 x   448 x   448        1395416236032       0.0%    100.0%      0.0%     
 flops   157 x   448 x   448        1404361211904       0.0%    100.0%      0.0%     
 flops   261 x   416 x  1855        1443695984640       0.0%    100.0%      0.0%     
 flops   143 x   448 x  1855        1460290191360       0.0%    100.0%      0.0%     
 flops   261 x   436 x  1855        1513104445440       0.0%    100.0%      0.0%     
 flops   209 x   448 x  1853        1598976884736       0.0%    100.0%      0.0%     
 flops    26 x    13 x   416        1604881714176       0.0%    100.0%      0.0%     
 flops    13 x    26 x   416        1608025427840       0.0%    100.0%      0.0%     
 flops    84 x   448 x  1855        1665324380160       0.0%    100.0%      0.0%     
 flops    26 x    13 x   436        1682039488896       0.0%    100.0%      0.0%     
 flops    13 x    26 x   436        1685334342640       0.0%    100.0%      0.0%     
 flops    32 x   448 x   416        1706689560576       0.0%    100.0%      0.0%     
 flops    32 x   416 x   448        1706689560576       0.0%    100.0%      0.0%     
 flops   209 x   448 x   416        1735964246016       0.0%    100.0%      0.0%     
 flops   209 x   416 x   448        1735964246016       0.0%    100.0%      0.0%     
 flops    14 x    32 x    14        1740895833600       0.0%    100.0%      0.0%     
 flops   195 x   448 x   448        1744270295040       0.0%    100.0%      0.0%     
 flops    32 x   448 x   436        1788741943296       0.0%    100.0%      0.0%     
 flops    32 x   436 x   448        1788741943296       0.0%    100.0%      0.0%     
 flops   235 x   448 x  1853        1797892669440       0.0%    100.0%      0.0%     
 flops    64 x   416 x  1853        1814415855616       0.0%    100.0%      0.0%     
 flops   209 x   448 x   436        1819424065536       0.0%    100.0%      0.0%     
 flops   209 x   436 x   448        1819424065536       0.0%    100.0%      0.0%     
 flops    26 x    26 x   416        1851738743296       0.0%    100.0%      0.0%     
 flops   248 x   448 x  1853        1897350561792       0.0%    100.0%      0.0%     
 flops    96 x   448 x  1853        1901175865344       0.0%    100.0%      0.0%     
 flops    64 x   436 x  1853        1901647387136       0.0%    100.0%      0.0%     
 flops    26 x    26 x   436        1940764644416       0.0%    100.0%      0.0%     
 flops   235 x   416 x   448        1951921520640       0.0%    100.0%      0.0%     
 flops   235 x   448 x   416        1951921520640       0.0%    100.0%      0.0%     
 flops   131 x   448 x  1855        2006622535680       0.0%    100.0%      0.0%     
 flops   235 x   436 x   448        2045763901440       0.0%    100.0%      0.0%     
 flops   235 x   448 x   436        2045763901440       0.0%    100.0%      0.0%     
 flops   248 x   416 x   448        2059900157952       0.0%    100.0%      0.0%     
 flops   248 x   448 x   416        2059900157952       0.0%    100.0%      0.0%     
 flops   208 x   448 x  1855        2124058460160       0.0%    100.0%      0.0%     
 flops   248 x   436 x   448        2158933819392       0.0%    100.0%      0.0%     
 flops   248 x   448 x   436        2158933819392       0.0%    100.0%      0.0%     
 flops    32 x   416 x  1855        2160012574720       0.0%    100.0%      0.0%     
 flops    32 x   436 x  1855        2263859333120       0.0%    100.0%      0.0%     
 flops   261 x   448 x  1853        2329609863168       0.0%    100.0%      0.0%     
 flops   261 x   448 x   416        2529191927808       0.0%    100.0%      0.0%     
 flops   261 x   416 x   448        2529191927808       0.0%    100.0%      0.0%     
 flops   143 x   448 x   448        2558263099392       0.0%    100.0%      0.0%     
 flops   261 x   448 x   436        2650787693568       0.0%    100.0%      0.0%     
 flops   261 x   436 x   448        2650787693568       0.0%    100.0%      0.0%     
 flops   274 x   448 x  1855        2798038548480       0.0%    100.0%      0.0%     
 flops   209 x   448 x  1842        3178969694208       0.0%    100.0%      0.0%     
 flops    32 x   448 x  1853        3485489086464       0.0%    100.0%      0.0%     
 flops   131 x   448 x   448        3515375517696       0.0%    100.0%      0.0%     
 flops   235 x   448 x  1842        3574439608320       0.0%    100.0%      0.0%     
 flops    64 x   416 x  1842        3607289806848       0.0%    100.0%      0.0%     
 flops   208 x   448 x   448        3721109962752       0.0%    100.0%      0.0%     
 flops   248 x   448 x  1842        3772174565376       0.0%    100.0%      0.0%     
 flops    96 x   448 x  1842        3779779756032       0.0%    100.0%      0.0%     
 flops    64 x   436 x  1842        3780717201408       0.0%    100.0%      0.0%     
 flops   261 x   448 x  1842        4631561109504       0.0%    100.0%      0.0%     
 flops   274 x   448 x   448        4901846777856       0.0%    100.0%      0.0%     
 flops    13 x    13 x   448        5625001234944       0.0%    100.0%      0.0%     
 flops    64 x   448 x   416        5740683067392       0.0%    100.0%      0.0%     
 flops    64 x   416 x   448        5740683067392       0.0%    100.0%      0.0%     
 flops    13 x    32 x    14        5932428902400       0.0%    100.0%      0.0%     
 flops    14 x    32 x    13        5932428902400       0.0%    100.0%      0.0%     
 flops    96 x   448 x   448        6015185584128       0.0%    100.0%      0.0%     
 flops    64 x   448 x   436        6016677445632       0.0%    100.0%      0.0%     
 flops    64 x   436 x   448        6016677445632       0.0%    100.0%      0.0%     
 flops   209 x   448 x  1855        6402810839040       0.0%    100.0%      0.0%     
 flops    26 x    32 x    14        6775844275200       0.0%    100.0%      0.0%     
 flops    14 x    32 x    26        6775844275200       0.0%    100.0%      0.0%     
 flops    32 x   448 x  1842        6929596219392       0.0%    100.0%      0.0%     
 flops   235 x   448 x  1855        7199332761600       0.0%    100.0%      0.0%     
 flops    64 x   416 x  1855        7265496842240       0.0%    100.0%      0.0%     
 flops   248 x   448 x  1855        7597593722880       0.0%    100.0%      0.0%     
 flops    96 x   448 x  1855        7612911452160       0.0%    100.0%      0.0%     
 flops    64 x   436 x  1855        7614799575040       0.0%    100.0%      0.0%     
 flops   261 x   448 x  1855        9328497131520       0.0%    100.0%      0.0%     
 flops    26 x    13 x   448       10370004922368       0.0%    100.0%      0.0%     
 flops    13 x    26 x   448       10390318149120       0.0%    100.0%      0.0%     
 flops    32 x   448 x   448       11027840237568       0.0%    100.0%      0.0%     
 flops   209 x   448 x   448       11216999743488       0.0%    100.0%      0.0%     
 flops    64 x   448 x  1853       11723917836288       0.0%    100.0%      0.0%     
 flops    26 x    26 x   448       11965081110528       0.0%    100.0%      0.0%     
 flops   235 x   448 x   448       12612415979520       0.0%    100.0%      0.0%     
 flops   248 x   448 x   448       13310124097536       0.0%    100.0%      0.0%     
 flops    32 x   448 x  1855       13957004328960       0.0%    100.0%      0.0%     
 flops   261 x   448 x   448       16342470918144       0.0%    100.0%      0.0%     
 flops    64 x   448 x  1842       23308641828864       0.0%    100.0%      0.0%     
 flops    13 x    32 x    13       28162957680000       0.0%    100.0%      0.0%     
 flops    64 x   448 x   448       37093644435456       0.0%    100.0%      0.0%     
 flops    64 x   448 x  1855       46946287288320       0.0%    100.0%      0.0%     
 flops    13 x    32 x    26       54623999372800       0.0%    100.0%      0.0%     
 flops    26 x    32 x    13       54623999372800       0.0%    100.0%      0.0%     
 flops    26 x    32 x    26       63219967782400       0.0%    100.0%      0.0%     
 flops inhomo. stacks             265892168881920     100.0%      0.0%      0.0%
 flops total                         1.037033E+15      25.6%     74.4%      0.0%
 flops max/rank                     20.577286E+12      30.9%     69.1%      0.0%
 matmuls inhomo. stacks                   1555032     100.0%      0.0%      0.0%
 matmuls total                        11194888273       0.0%    100.0%      0.0%
 number of processed stacks              31689800       4.9%     95.1%      0.0%
 average stack size                                     1.0     371.2       0.0
 marketing flops                     1.327167E+15
 -------------------------------------------------------------------------------
 # multiplications                           2735
 max memory usage/rank               2.454155E+09
 # max total images/rank                        1
 # max 3D layers                                1
 # MPI messages exchanged                 2450560
 MPI messages size (bytes):
  total size                        12.031408E+12
  min size                           0.000000E+00
  max size                          27.528200E+06
  average size                       4.909656E+06
 MPI breakdown and total messages size (bytes):
             size <=      128                3864                        0
       128 < size <=     8192                   0                        0
      8192 < size <=    32768                   0                        0
     32768 < size <=   131072                 168                 18990720
    131072 < size <=  4194304             1249920            1957937184000
   4194304 < size <= 16777216             1139264            8500463068440
  16777216 < size                           57344            1572413488128
 -------------------------------------------------------------------------------
 -                                                                             -
 -                      DBCSR MESSAGE PASSING PERFORMANCE                      -
 -                                                                             -
 -------------------------------------------------------------------------------
 ROUTINE             CALLS      AVE VOLUME [Bytes]
 MP_Bcast              358                     12.
 MP_Allreduce        15486                    102.
 MP_Alltoall          9035                 440441.
 MP_ISend            87508                2174307.
 MP_IRecv            87508                2166133.
 -------------------------------------------------------------------------------

 -------------------------------------------------------------------------------
 -                                                                             -
 -                                DBM STATISTICS                               -
 -                                                                             -
 -------------------------------------------------------------------------------
    M  x    N  x    K                                          COUNT     PERCENT
 -------------------------------------------------------------------------------

 -------------------------------------------------------------------------------
 -                                                                             -
 -                                GRID STATISTICS                              -
 -                                                                             -
 -------------------------------------------------------------------------------
 LP    KERNEL             BACKEND                              COUNT     PERCENT
 5     collocate general  CPU                               76201902      24.87%
 5     integrate general  CPU                               75597125      24.67%
 4     collocate general  CPU                               42994350      14.03%
 4     integrate general  CPU                               42653125      13.92%
 6     collocate general  CPU                               33962040      11.08%
 6     integrate general  CPU                               33692500      11.00%
 8     integrate general  CPU                                 604777       0.20%
 7     integrate general  CPU                                 341225       0.11%
 9     integrate general  CPU                                 269540       0.09%
 0     collocate general  CPU                                  56640       0.02%
 3     integrate general  CPU                                  56640       0.02%
 -------------------------------------------------------------------------------

 MEMORY| Estimated peak process memory [MiB]                                2407

 -------------------------------------------------------------------------------
 -                                                                             -
 -                         MESSAGE PASSING PERFORMANCE                         -
 -                                                                             -
 -------------------------------------------------------------------------------

 ROUTINE             CALLS      AVE VOLUME [Bytes]
 MP_Group                5
 MP_Bcast            10763                 158956.
 MP_Allreduce        28467                   3207.
 MP_Sync               125
 MP_Alltoall          3296               33417109.
 MP_SendRecv         23814                 146235.
 MP_ISendRecv        23814                 146235.
 MP_Wait             61258
 MP_ISend            35420                 521330.
 MP_IRecv            35420                 521330.
 -------------------------------------------------------------------------------


 -------------------------------------------------------------------------------
 -                                                                             -
 -                           R E F E R E N C E S                               -
 -                                                                             -
 -------------------------------------------------------------------------------
 
 CP2K version 2024.3, the CP2K developers group (2024).
 CP2K is freely available from https://www.cp2k.org/ .
 
 T. D. Kuehne, M. Iannuzzi, M. Del Ben, V. V. Rybkin, P. Seewald, F. Stein, T. 
 Laino, R. Z. Khaliullin, O. Schuett, F. Schiffmann, D. Golze, J. Wilhelm, S. 
 Chulkov, M. H. Bani-Hashemian, V. Weber, U. Borstnik, M. Taillefumier, A. S. 
 Jakobovits, A. Lazzaro, H. Pabst, T. Mueller, R. Schade, M. Guidon, S. 
 Andermatt, N. Holmberg, G. K. Schenter, A. Hehn, A. Bussy, F. Belleflamme, G. 
 Tabacchi, A. Gloess, M. Lass, I. Bethune, C. J. Mundy, C. Plessl, M. Watkins, 
 J. VandeVondele, M. Krack, J. Hutter.
 J. Chem. Phys. 152, 194103 (2020).
 CP2K: An electronic structure and molecular dynamics software package - 
 Quickstep: Efficient and accurate electronic structure calculations.
 https://doi.org/10.1063/5.0007045

 O. Schuett, P. Messmer, J. Hutter, J. VandeVondele.
 Electronic Structure Calculations on Graphics Processing Units, 173-190 (2016).
 GPU-Accelerated Sparse Matrix-Matrix Multiplication for Linear Scaling Density 
 Functional Theory.
 https://doi.org/10.1002/9781118670712.ch8

 A. Heinecke, G. Henry, M. Hutchinson, H. Pabst.
 Proceedings of Intl. Supercomputing Conference, 981-991 (2016).
 LIBXSMM: Accelerating Small Matrix Multiplications by Runtime Code Generation.
 https://doi.org/10.1109/SC.2016.83

 J. Hutter, M. Iannuzzi, F. Schiffmann, J. VandeVondele.
 WIREs Comput Mol Sci. 4, 15-25 (2014).
 CP2K: atomistic simulations of condensed matter systems.
 https://doi.org/10.1002/wcms.1159

 U. Borstnik, J. VandeVondele, V. Weber, J. Hutter.
 Parallel Comput. 40, 47-58 (2014).
 Sparse matrix multiplication: The distributed block-compressed sparse row 
 library.
 https://doi.org/10.1016/j.parco.2014.03.012

 A. Marek, V. Blum, R. Johanni, V. Havu, B. Lang, T. Auckenthaler, A. Heinecke, 
 H. Bungartz, H. Lederer.
 J. Phys. Condens. Matter 26, 213201 (2014).
 The ELPA library: scalable parallel eigenvalue solutions for electronic 
 structure theory and computational science.
 https://doi.org/10.1088/0953-8984/26/21/213201

 J. P. Perdew, A. Ruzsinszky, G. I. Csonka, O. A. Vydrov, G. E. Scuseria, L. A. 
 Constantin, X. Zhou, K. Burke.
 Phys. Rev. Lett. 100, 136406-136409 (2008).
 Restoring the Density-Gradient Expansion for Exchange in Solids and Surfaces.
 https://doi.org/10.1103/PhysRevLett.100.136406

 J. VandeVondele, J. Hutter.
 J. Chem. Phys. 127, 114105 (2007).
 Gaussian basis sets for accurate calculations on molecular systems in gas and 
 condensed phases.
 https://doi.org/10.1063/1.2770708

 J. VandeVondele, M. Krack, F. Mohamed, M. Parrinello, T. Chassaing, J. Hutter.
 Comput. Phys. Commun. 167, 103-128 (2005).
 QUICKSTEP: Fast and accurate density functional calculations using a mixed 
 Gaussian and plane waves approach.
 https://doi.org/10.1016/j.cpc.2004.12.014

 M. Krack.
 Theor. Chem. Acc. 114, 145-152 (2005).
 Pseudopotentials for H to Kr optimized for gradient-corrected 
 exchange-correlation functionals.
 https://doi.org/10.1007/s00214-005-0655-y

 M. Frigo, S. G. Johnson.
 Proc. IEEE 93, 216-231 (2005).
 The design and implementation of FFTW3.
 https://doi.org/10.1109/JPROC.2004.840301

 J. VandeVondele, J. Hutter.
 J. Chem. Phys. 118, 4365-4369 (2003).
 An efficient orbital transformation method for electronic structure 
 calculations.
 https://doi.org/10.1063/1.1543154

 C. Hartwigsen, S. Goedecker, J. Hutter.
 Phys. Rev. B 58, 3641-3662 (1998).
 Relativistic separable dual-space Gaussian pseudopotentials from H to Rn.
 https://doi.org/10.1103/PhysRevB.58.3641

 G. Lippert, J. Hutter, M. Parrinello.
 Mol. Phys. 92, 477-487 (1997).
 A hybrid Gaussian and plane wave density functional scheme.
 https://doi.org/10.1080/002689797170220

 S. Goedecker, M. Teter, J. Hutter.
 Phys. Rev. B 54, 1703-1710 (1996).
 Separable dual-space Gaussian pseudopotentials.
 https://doi.org/10.1103/PhysRevB.54.1703

 J. P. Perdew, K. Burke, M. Ernzerhof.
 Phys. Rev. Lett. 77, 3865-3868 (1996).
 Generalized gradient approximation made simple.
 https://doi.org/10.1103/PhysRevLett.77.3865


 -------------------------------------------------------------------------------
 -                                                                             -
 -                                T I M I N G                                  -
 -                                                                             -
 -------------------------------------------------------------------------------
 SUBROUTINE                       CALLS  ASD         SELF TIME        TOTAL TIME
                                MAXIMUM       AVERAGE  MAXIMUM  AVERAGE  MAXIMUM
 CP2K                                 1  1.0    1.349    1.364  596.844  596.849
 qs_forces                            1  2.0    0.002    0.002  594.443  594.448
 qs_energies                          1  3.0    0.000    0.001  571.326  571.350
 scf_env_do_scf                       1  4.0    0.000    0.000  564.520  564.523
 scf_env_do_scf_inner_loop          125  5.0    0.004    0.015  539.700  539.704
 qs_scf_new_mos                     125  6.0    0.001    0.001  289.553  292.399
 qs_scf_loop_do_ot                  125  7.0    0.001    0.001  289.552  292.398
 ot_scf_mini                        125  8.0    0.005    0.006  272.910  274.132
 dbcsr_multiply_generic            2735 11.1    0.224    0.243  232.712  238.146
 multiply_cannon                   2735 12.1    0.454    0.527  175.733  187.277
 multiply_cannon_loop              2735 13.1    0.337    0.505  164.781  174.679
 rebuild_ks_matrix                  126  7.0    0.001    0.002  157.954  159.915
 qs_ks_build_kohn_sham_matrix       126  8.0    0.030    0.040  157.953  159.913
 qs_ks_update_qs_env                128  6.0    0.002    0.003  155.012  156.961
 multiply_cannon_multrec          21880 14.1  142.583  151.086  142.613  151.118
 ot_mini                            125  9.0    0.002    0.002  143.062  144.631
 qs_rho_update_rho_low              126  6.0    0.001    0.001   97.360   97.411
 calculate_rho_elec                 126  7.0    0.709    0.791   97.359   97.410
 qs_ot_get_derivative               125 10.0    0.002    0.003   94.537   95.743
 qs_ot_get_p                        128  9.0    0.002    0.002   91.302   92.938
 sum_up_and_integrate               126  9.0    0.003    0.004   82.617   82.657
 integrate_v_rspace                 126 10.0    0.005    0.006   82.482   82.527
 grid_collocate_task_list           126  8.0   71.830   75.903   71.830   75.903
 qs_ot_p2m_diag                     120 10.0    1.898    1.967   72.811   73.093
 qs_ot_get_derivative_diag          118 11.0    0.006    0.007   63.676   64.741
 cp_dbcsr_syevd                     120 11.0    0.019    0.022   64.538   64.549
 grid_integrate_task_list           126 11.0   61.880   64.131   61.880   64.131
 cp_fm_diag_elpa                    120 12.0    0.002    0.002   63.313   63.395
 cp_fm_diag_elpa_base               120 13.0   62.935   63.111   63.239   63.240
 fft_wrap_pw1pw2                   2521 11.1    0.050    0.055   51.372   51.526
 fft_wrap_pw1pw2_300               1513 12.6    2.595    2.784   49.305   49.508
 ot_diis_step                       125 10.0    0.008    0.009   47.300   47.301
 apply_preconditioner_dbcsr         128 11.0    0.000    0.000   39.605   41.344
 apply_single                       128 12.0    0.001    0.001   39.604   41.344
 qs_vxc_create                      126  9.0    0.003    0.004   41.140   41.153
 xc_vxc_pw_create                   126 10.0    0.896    1.001   41.137   41.150
 fft3d_ps                          2521 13.1   16.926   19.706   39.762   40.323
 mp_waitall_1                    244638 15.1   25.605   35.608   25.605   35.608
 make_m2s                          5470 12.1    0.134    0.157   30.997   33.304
 xc_pw_derive                       756 12.0    0.007    0.008   28.232   29.016
 density_rs2pw                      126  8.0    0.007    0.008   22.605   27.400
 mp_sum_l                         13567 11.9   18.894   27.151   18.894   27.151
 make_images                       5470 13.1    2.074    2.390   23.800   25.795
 init_scf_loop                        3  5.0    0.000    0.000   24.798   24.799
 mp_sum_d                          7795 11.6   14.497   24.544   14.497   24.544
 mp_alltoall_z22v                  2521 15.1   19.132   22.400   19.132   22.400
 xc_rho_set_and_dset_create         126 11.0    0.622    0.721   21.081   21.986
 calculate_dm_sparse                126  8.0    0.001    0.001   16.840   19.894
 build_core_hamiltonian_matrix_       1  3.0    0.000    0.000   14.574   19.643
 xc_pw_divergence                   126 11.0    0.003    0.004   18.738   19.471
 mp_irecv_dv                      76403 14.0    9.420   19.077    9.420   19.077
 qs_ot_get_orbitals                 125  9.0    0.001    0.002   18.266   18.908
 mp_waitany                       35420 12.5   13.589   18.870   13.589   18.870
 transfer_rs2pw                     631  9.0    0.012    0.015   14.027   18.844
 prepare_preconditioner               3  6.0    0.000    0.000   18.226   18.279
 make_preconditioner                  3  7.0    0.000    0.001   18.226   18.279
 build_core_ppnl_forces               1  4.0   13.223   18.271   13.223   18.271
 potential_pw2rs                    126 11.0    0.041    0.045   17.352   17.386
 multiply_cannon_metrocomm1       21880 14.1    0.093    0.107    7.177   16.874
 transfer_rs2pw_300                 127 10.0    1.665    1.970    9.647   14.605
 make_images_data                  5470 14.1    0.086    0.099   12.542   14.484
 calculate_ecore_overlap              2  4.0    0.000    0.000    5.087   14.107
 x_to_yz                           1134 14.4    2.249    2.554   12.537   13.487
 hybrid_alltoall_any               5609 15.1    0.396    3.214   11.424   13.309
 mp_allgather_i34                  2735 13.1    8.166   13.151    8.166   13.151
 dbcsr_make_dense_low              7250 14.1    0.073    0.084    9.351   12.698
 make_dense_data                   7250 15.1    8.949   12.308    9.256   12.603
 transfer_pw2rs                     631 12.0    0.009    0.010   12.236   12.252
 yz_to_x                            883 14.1    1.275    1.349   10.098   12.216
 make_full_inverse_cholesky           3  8.0    0.000    0.000   11.987   12.057
 dbcsr_dot_sd                      1566 10.6    2.090    2.158    9.417   11.977
 -------------------------------------------------------------------------------

 The number of warnings for this run is : 0
 
 -------------------------------------------------------------------------------
  **** **** ******  **  PROGRAM ENDED AT                 2026-08-31 16:02:11.419
 ***** ** ***  *** **   PROGRAM RAN ON                                 nid004599
 **    ****   ******    PROGRAM RAN BY                                    agne_r
 ***** **    ** ** **   PROGRAM PROCESS ID                                 91769
  **** **  *******  **  PROGRAM STOPPED IN /mnt/lustre/a2fs-work3/work/e89/e89/a
                                           gne_r/Crystalline_HfO2_Interfaces/Cla
                                           ude/HfO2_STO_interfaces/V4_lattice_ma
                                           tches/updated/V4_lattice_matches/STO_
                                           HfO2_m111_pbesol_matches/configs/m07_
                                           A0350_eps0p5
