 DBCSR| CPU Multiplication driver                                           XSMM (U)
 DBCSR| Multrec recursion limit                                              512 (U)
 DBCSR| Multiplication stack size                                           1000 (D)
 DBCSR| Maximum elements for images                                    UNLIMITED (U)
 DBCSR| Multiplicative factor virtual images                                   1 (U)
 DBCSR| Use multiplication densification                                       T (D)
 DBCSR| Multiplication size stacks                                             3 (U)
 DBCSR| Use memory pool for CPU allocation                                     F (U)
 DBCSR| Number of 3D layers                                               SINGLE (U)
 DBCSR| Use MPI memory allocation                                              F (U)
 DBCSR| Use RMA algorithm                                                      F (U)
 DBCSR| Use Communication thread                                               T (U)
 DBCSR| Communication thread load                                             60 (D)
 DBCSR| MPI: My process id                                                     0
 DBCSR| MPI: Number of processes                                              32
 DBCSR| OMP: Current number of threads                                         8
 DBCSR| OMP: Max number of threads                                             8
 DBCSR| Split modifier for TAS multiplication algorithm                  1.0E+00 (U)


  **** **** ******  **  PROGRAM STARTED AT               2026-08-31 15:51:37.862
 ***** ** ***  *** **   PROGRAM STARTED ON                             nid003394
 **    ****   ******    PROGRAM STARTED BY                                agne_r
 ***** **    ** ** **   PROGRAM PROCESS ID                                259865
  **** **  *******  **  PROGRAM STARTED IN /mnt/lustre/a2fs-work3/work/e89/e89/a
                                           gne_r/Crystalline_HfO2_Interfaces/Cla
                                           ude/HfO2_STO_interfaces/V4_lattice_ma
                                           tches/updated/V4_lattice_matches/STO_
                                           HfO2_m111_pbesol_matches/configs/m02_
                                           A0122_eps6p4

 CP2K| version string:                                       CP2K version 2024.3
 CP2K| source code revision number:                                  git:6712648
 CP2K| cp2kflags: omp libint fftw3 libxc libgrpp elpa parallel scalapack cosma x
 CP2K|            smm plumed2 spglib mkl sirius libvori libbqb libvdwxc hdf5
 CP2K| is freely available from                            https://www.cp2k.org/
 CP2K| Program compiled at                       Thu 12 Sep 2024 10:20:47 AM BST
 CP2K| Program compiled on                                                  ln04
 CP2K| Program compiled for                                                local
 CP2K| Data directory path    /mnt/lustre/a2fs-work1/work/y07/shared/apps/core/c
 CP2K| Input file name                                                  cp2k.inp

 GLOBAL| Force Environment number                                              1
 GLOBAL| Basis set file name                                        BASIS_MOLOPT
 GLOBAL| Potential file name                                      GTH_POTENTIALS
 GLOBAL| MM Potential file name                                     MM_POTENTIAL
 GLOBAL| Coordinate file name                                      interface.cif
 GLOBAL| Method name                                                        CP2K
 GLOBAL| Project name                                           m02_A0122_eps6p4
 GLOBAL| Run type                                                   ENERGY_FORCE
 GLOBAL| FFT library                                                       FFTW3
 GLOBAL| Diagonalization library                                            ELPA
 GLOBAL| DGEMM library                                                      BLAS
 GLOBAL| Minimum number of eigenvectors for ELPA usage                        16
 GLOBAL| Orthonormality check for eigenvectors                          DISABLED
 GLOBAL| Matrix multiplication library                                     COSMA
 GLOBAL| All-to-all communication in single precision                          F
 GLOBAL| FFTs using library dependent lengths                                  T
 GLOBAL| Grid backend                                                       AUTO
 GLOBAL| Global print level                                                  LOW
 GLOBAL| MPI I/O enabled                                                       T
 GLOBAL| Total number of message passing processes                            32
 GLOBAL| Number of threads for this process                                    8
 GLOBAL| This output is from process                                           0
 GLOBAL| Stack size for threads created by OpenMP (OMP_STACKSIZE)        default
 GLOBAL| CPU model name                          AMD EPYC 7742 64-Core Processor
 GLOBAL| CPUID                                                              1002

 MEMORY| system memory details [Kb]
 MEMORY|                        rank 0           min           max       average
 MEMORY| MemTotal            263266836     263266836     263266880     263266858
 MEMORY| MemFree             247200088     247200088     248941384     248070736
 MEMORY| Buffers                193400        127504        193400        160452
 MEMORY| Cached                1221164       1201372       1221164       1211268
 MEMORY| Slab                  4555708       3261680       4555708       3908703
 MEMORY| SReclaimable          2246812       1430980       2246812       1838896
 MEMORY| MemLikelyFree       250861464     250861464     251701240     251281352


 GENERATE|  Preliminary Number of Bonds generated:                             0
 GENERATE|  Achieved consistency in connectivity generation.

 *******************************************************************************
 *******************************************************************************
 **                                                                           **
 **     #####                         ##              ##                      **
 **    ##   ##            ##          ##              ##                      **
 **   ##     ##                       ##            ######                    **
 **   ##     ##  ##   ##  ##   #####  ##  ##   ####   ##    #####    #####    **
 **   ##     ##  ##   ##  ##  ##      ## ##   ##      ##   ##   ##  ##   ##   **
 **   ##  ## ##  ##   ##  ##  ##      ####     ###    ##   ######   ######    **
 **    ##  ###   ##   ##  ##  ##      ## ##      ##   ##   ##       ##        **
 **     #######   #####   ##   #####  ##  ##  ####    ##    #####   ##        **
 **           ##                                                    ##        **
 **                                                                           **
 **                                                ... make the atoms dance   **
 **                                                                           **
 **            Copyright (C) by CP2K developers group (2000-2024)             **
 **                      J. Chem. Phys. 152, 194103 (2020)                    **
 **                                                                           **
 *******************************************************************************


 TOTAL NUMBERS AND MAXIMUM NUMBERS

  Total number of            - Atomic kinds:                                   4
                             - Atoms:                                        300
                             - Shell sets:                                   300
                             - Shells:                                      1776
                             - Primitive Cartesian functions:               1608
                             - Cartesian basis functions:                   5652
                             - Spherical basis functions:                   5016

  Maximum angular momentum of- Orbital basis functions:                        3
                             - Local part of the GTH pseudopotential:          2
                             - Non-local part of the GTH pseudopotential:      4


 SCF PARAMETERS         Density guess:                                    ATOMIC
                        --------------------------------------------------------
                        max_scf:                                              60
                        max_scf_history:                                       0
                        max_diis:                                              4
                        --------------------------------------------------------
                        eps_scf:                                        1.00E-06
                        eps_scf_history:                                0.00E+00
                        eps_diis:                                       1.00E-01
                        eps_eigval:                                     1.00E-05
                        --------------------------------------------------------
                        level_shift [a.u.]:                             0.000000
                        --------------------------------------------------------
                        Outer loop SCF in use 
                        No variables optimised in outer loop
                        eps_scf                                         1.00E-06
                        max_scf                                               25
                        No outer loop optimization
                        step_size                                       5.00E-01

 Number of electrons:                                                       2400
 Number of occupied orbitals:                                               1200
 Number of molecular orbitals:                                              1200

 Number of orbital functions:                                               5016
 Number of independent orbital functions:                                   5016

 Extrapolation method: initial_guess


 SCF WAVEFUNCTION OPTIMIZATION

  ----------------------------------- OT ---------------------------------------
  Minimizer      : DIIS                : direct inversion
                                         in the iterative subspace
                                         using   7 DIIS vectors
                                         safer DIIS on
  Preconditioner : FULL_SINGLE_INVERSE : inversion of 
                                         H + eS - 2*(Sc)(c^T*H*c+const)(Sc)^T
  Precond_solver : DEFAULT
  stepsize       :    0.08000000                  energy_gap     :    0.05000000
  eps_taylor     :   0.10000E-15                  max_taylor     :             4
  ----------------------------------- OT ---------------------------------------

  Step     Update method      Time    Convergence         Total energy    Change
  ------------------------------------------------------------------------------
     1 OT DIIS     0.80E-01    2.7     0.02836297     -7972.0427411963 -7.97E+03
     2 OT DIIS     0.80E-01    1.7     0.50131815     -5310.4522239645  2.66E+03
     3 OT DIIS     0.80E-01    1.7     0.06810757     -7943.5027241197 -2.63E+03
     4 OT DIIS     0.80E-01    1.7     0.01773406     -8019.3773098836 -7.59E+01
     5 OT DIIS     0.80E-01    1.6     0.00668867     -8031.8594211776 -1.25E+01
     6 OT DIIS     0.80E-01    1.6     0.00769653     -8054.8680084034 -2.30E+01
     7 OT DIIS     0.80E-01    1.6     0.00540739     -8066.4409177829 -1.16E+01
     8 OT DIIS     0.80E-01    1.6     0.00412695     -8084.0969270522 -1.77E+01
     9 OT DIIS     0.80E-01    1.6     0.00571659     -8097.6653709085 -1.36E+01
    10 OT DIIS     0.80E-01    1.6     0.00466884     -8105.4799166122 -7.81E+00
    11 OT DIIS     0.80E-01    1.6     0.00356513     -8112.9238623451 -7.44E+00
    12 OT DIIS     0.80E-01    1.6     0.00247104     -8120.4988568771 -7.57E+00
    13 OT DIIS     0.80E-01    1.6     0.00270807     -8127.7842989014 -7.29E+00
    14 OT DIIS     0.80E-01    1.5     0.00198450     -8131.9610141967 -4.18E+00
    15 OT DIIS     0.80E-01    1.5     0.00176000     -8135.4045936498 -3.44E+00
    16 OT DIIS     0.80E-01    1.5     0.00195907     -8139.8122239064 -4.41E+00
    17 OT DIIS     0.80E-01    1.5     0.00147883     -8141.8440651143 -2.03E+00
    18 OT DIIS     0.80E-01    1.5     0.00136451     -8145.7139974477 -3.87E+00
    19 OT DIIS     0.80E-01    1.5     0.00124364     -8148.7901060860 -3.08E+00
    20 OT DIIS     0.80E-01    1.6     0.00113492     -8150.9401610213 -2.15E+00
    21 OT DIIS     0.80E-01    1.5     0.00106436     -8153.0835081036 -2.14E+00
    22 OT DIIS     0.80E-01    1.6     0.00102435     -8155.2190900114 -2.14E+00
    23 OT DIIS     0.80E-01    1.5     0.00093699     -8156.2132569028 -9.94E-01
    24 OT DIIS     0.80E-01    1.5     0.00088206     -8157.4489697558 -1.24E+00
    25 OT DIIS     0.80E-01    1.5     0.00079485     -8159.2002064237 -1.75E+00
    26 OT DIIS     0.80E-01    1.5     0.00079279     -8159.9051155994 -7.05E-01
    27 OT DIIS     0.80E-01    1.5     0.00072147     -8160.8004714679 -8.95E-01
    28 OT DIIS     0.80E-01    1.5     0.00067956     -8161.6169421830 -8.16E-01
    29 OT DIIS     0.80E-01    1.5     0.00065498     -8162.1777866858 -5.61E-01
    30 OT DIIS     0.80E-01    1.5     0.00063673     -8162.8137792183 -6.36E-01
    31 OT DIIS     0.80E-01    1.5     0.00059248     -8163.4960559503 -6.82E-01
    32 OT DIIS     0.80E-01    1.5     0.00057322     -8163.9257224236 -4.30E-01
    33 OT DIIS     0.80E-01    1.5     0.00055211     -8164.3623855970 -4.37E-01
    34 OT DIIS     0.80E-01    1.5     0.00053170     -8164.8775193665 -5.15E-01
    35 OT DIIS     0.80E-01    1.5     0.00051095     -8165.1818050213 -3.04E-01
    36 OT DIIS     0.80E-01    1.5     0.00048888     -8165.6148454237 -4.33E-01
    37 OT DIIS     0.80E-01    1.5     0.00047047     -8165.9947133938 -3.80E-01
    38 OT DIIS     0.80E-01    1.5     0.00044830     -8166.3511523878 -3.56E-01
    39 OT DIIS     0.80E-01    1.5     0.00043320     -8166.6080042642 -2.57E-01
    40 OT DIIS     0.80E-01    1.5     0.00041773     -8166.8881199442 -2.80E-01
    41 OT DIIS     0.80E-01    1.5     0.00040045     -8167.1743047172 -2.86E-01
    42 OT DIIS     0.80E-01    1.5     0.00039154     -8167.3814555582 -2.07E-01
    43 OT DIIS     0.80E-01    1.5     0.00037875     -8167.5774593662 -1.96E-01
    44 OT DIIS     0.80E-01    1.5     0.00036342     -8167.8631062679 -2.86E-01
    45 OT DIIS     0.80E-01    1.5     0.00034693     -8168.0690181559 -2.06E-01
    46 OT DIIS     0.80E-01    1.5     0.00033574     -8168.2436103805 -1.75E-01
    47 OT DIIS     0.80E-01    1.5     0.00032500     -8168.3829891062 -1.39E-01
    48 OT DIIS     0.80E-01    1.5     0.00031321     -8168.5346832809 -1.52E-01
    49 OT DIIS     0.80E-01    1.5     0.00030377     -8168.6807529183 -1.46E-01
    50 OT DIIS     0.80E-01    1.5     0.00029391     -8168.8326223608 -1.52E-01
    51 OT DIIS     0.80E-01    1.5     0.00028680     -8168.9673873127 -1.35E-01
    52 OT DIIS     0.80E-01    1.5     0.00027233     -8169.1012619488 -1.34E-01
    53 OT DIIS     0.80E-01    1.5     0.00026364     -8169.1976153703 -9.64E-02
    54 OT DIIS     0.80E-01    1.5     0.00025685     -8169.2924962920 -9.49E-02
    55 OT DIIS     0.80E-01    1.5     0.00024933     -8169.4056373186 -1.13E-01
    56 OT DIIS     0.80E-01    1.5     0.00024010     -8169.4896633199 -8.40E-02
    57 OT DIIS     0.80E-01    1.5     0.00023165     -8169.5821090553 -9.24E-02
    58 OT DIIS     0.80E-01    1.5     0.00022727     -8169.6443373269 -6.22E-02
    59 OT DIIS     0.80E-01    1.5     0.00021994     -8169.7217345444 -7.74E-02
    60 OT DIIS     0.80E-01    1.5     0.00021324     -8169.7880169591 -6.63E-02

  Leaving inner SCF loop after reaching    60 steps.


  Electronic density on regular grids:      -2399.9999997673        0.0000002327
  Core density on regular grids:             2399.9999998510       -0.0000001490
  Total dipole moment perpendicular to 
  the slab [electrons-Angstroem]:               1.1671168085
  Total charge density on r-space grids:        0.0000000837
  Total charge density g-space grids:           0.0000000837

  Overlap energy of the core charge distribution:               0.00000752854949
  Self energy of the core charge distribution:             -16301.40325826033950
  Core Hamiltonian energy:                                   4172.52113682421623
  Hartree energy:                                            5273.78288474425062
  Exchange-correlation energy:                              -1314.68878779579927

  Total energy:                                             -8169.78801695912261

  outer SCF iter =    1 RMS gradient =   0.21E-03 energy =      -8169.7880169591

  ----------------------------------- OT ---------------------------------------
  Minimizer      : DIIS                : direct inversion
                                         in the iterative subspace
                                         using   7 DIIS vectors
                                         safer DIIS on
  Preconditioner : FULL_SINGLE_INVERSE : inversion of 
                                         H + eS - 2*(Sc)(c^T*H*c+const)(Sc)^T
  Precond_solver : DEFAULT
  stepsize       :    0.08000000                  energy_gap     :    0.05000000
  eps_taylor     :   0.10000E-15                  max_taylor     :             4
  ----------------------------------- OT ---------------------------------------

  Step     Update method      Time    Convergence         Total energy    Change
  ------------------------------------------------------------------------------
     1 OT DIIS     0.80E-01    4.1     0.00107923     -8169.8433911794 -5.54E-02
     2 OT DIIS     0.80E-01    1.6     0.00091906     -8170.3245275137 -4.81E-01
     3 OT DIIS     0.80E-01    1.6     0.00167467     -8170.5641748839 -2.40E-01
     4 OT DIIS     0.80E-01    1.6     0.00119498     -8170.7835970917 -2.19E-01
     5 OT DIIS     0.80E-01    1.6     0.00106723     -8171.0138895326 -2.30E-01
     6 OT DIIS     0.80E-01    1.6     0.00085377     -8171.1210208503 -1.07E-01
     7 OT DIIS     0.80E-01    1.6     0.00054263     -8171.1875661712 -6.65E-02
     8 OT DIIS     0.80E-01    1.6     0.00064177     -8171.2222303330 -3.47E-02
     9 OT DIIS     0.80E-01    1.6     0.00043403     -8171.2610958952 -3.89E-02
    10 OT DIIS     0.80E-01    1.5     0.00030751     -8171.3113030672 -5.02E-02
    11 OT DIIS     0.80E-01    1.5     0.00032861     -8171.3391384993 -2.78E-02
    12 OT DIIS     0.80E-01    1.5     0.00025418     -8171.3560974300 -1.70E-02
    13 OT DIIS     0.80E-01    1.5     0.00020037     -8171.3640405907 -7.94E-03
    14 OT DIIS     0.80E-01    1.5     0.00022422     -8171.3684576436 -4.42E-03
    15 OT DIIS     0.80E-01    1.5     0.00013391     -8171.3742782995 -5.82E-03
    16 OT DIIS     0.80E-01    1.5     0.00015447     -8171.3773391657 -3.06E-03
    17 OT DIIS     0.80E-01    1.5     0.00010092     -8171.3801439553 -2.80E-03
    18 OT DIIS     0.80E-01    1.5     0.00005773     -8171.3826063478 -2.46E-03
    19 OT DIIS     0.80E-01    1.5     0.00005490     -8171.3837931665 -1.19E-03
    20 OT DIIS     0.80E-01    1.5     0.00004772     -8171.3847503734 -9.57E-04
    21 OT DIIS     0.80E-01    1.5     0.00004290     -8171.3855440293 -7.94E-04
    22 OT DIIS     0.80E-01    1.5     0.00003890     -8171.3862708068 -7.27E-04
    23 OT DIIS     0.80E-01    1.5     0.00003169     -8171.3867583081 -4.88E-04
    24 OT DIIS     0.80E-01    1.5     0.00002987     -8171.3872094525 -4.51E-04
    25 OT DIIS     0.80E-01    1.5     0.00002738     -8171.3874077450 -1.98E-04
    26 OT DIIS     0.80E-01    1.5     0.00002023     -8171.3877173735 -3.10E-04
    27 OT DIIS     0.80E-01    1.5     0.00001808     -8171.3879664632 -2.49E-04
    28 OT DIIS     0.80E-01    1.5     0.00001644     -8171.3881071713 -1.41E-04
    29 OT DIIS     0.80E-01    1.5     0.00001465     -8171.3882100597 -1.03E-04
    30 OT DIIS     0.80E-01    1.5     0.00001312     -8171.3882957605 -8.57E-05
    31 OT DIIS     0.80E-01    1.5     0.00001166     -8171.3883464708 -5.07E-05
    32 OT DIIS     0.80E-01    1.5     0.00001059     -8171.3883998915 -5.34E-05
    33 OT DIIS     0.80E-01    1.5     0.00001099     -8171.3884232599 -2.34E-05
    34 OT DIIS     0.80E-01    1.5     0.00000753     -8171.3884479840 -2.47E-05
    35 OT DIIS     0.80E-01    1.5     0.00000658     -8171.3884721791 -2.42E-05
    36 OT DIIS     0.80E-01    1.5     0.00000628     -8171.3884860689 -1.39E-05
    37 OT DIIS     0.80E-01    1.5     0.00000581     -8171.3884988468 -1.28E-05
    38 OT DIIS     0.80E-01    1.5     0.00000538     -8171.3885108154 -1.20E-05
    39 OT DIIS     0.80E-01    1.5     0.00000501     -8171.3885185557 -7.74E-06
    40 OT DIIS     0.80E-01    1.5     0.00000447     -8171.3885278164 -9.26E-06
    41 OT DIIS     0.80E-01    1.5     0.00000459     -8171.3885341361 -6.32E-06
    42 OT DIIS     0.80E-01    1.5     0.00000379     -8171.3885388822 -4.75E-06
    43 OT DIIS     0.80E-01    1.5     0.00000343     -8171.3885468575 -7.98E-06
    44 OT DIIS     0.80E-01    1.5     0.00000331     -8171.3885523661 -5.51E-06
    45 OT DIIS     0.80E-01    1.5     0.00000313     -8171.3885576130 -5.25E-06
    46 OT DIIS     0.80E-01    1.5     0.00000290     -8171.3885627385 -5.13E-06
    47 OT DIIS     0.80E-01    1.5     0.00000277     -8171.3885663185 -3.58E-06
    48 OT DIIS     0.80E-01    1.5     0.00000255     -8171.3885709236 -4.61E-06
    49 OT DIIS     0.80E-01    1.5     0.00000270     -8171.3885746088 -3.69E-06
    50 OT DIIS     0.80E-01    1.5     0.00000232     -8171.3885768733 -2.26E-06
    51 OT DIIS     0.80E-01    1.5     0.00000205     -8171.3885809849 -4.11E-06
    52 OT DIIS     0.80E-01    1.5     0.00000197     -8171.3885836030 -2.62E-06
    53 OT DIIS     0.80E-01    1.5     0.00000186     -8171.3885860546 -2.45E-06
    54 OT DIIS     0.80E-01    1.5     0.00000175     -8171.3885884614 -2.41E-06
    55 OT DIIS     0.80E-01    1.5     0.00000172     -8171.3885903044 -1.84E-06
    56 OT DIIS     0.80E-01    1.5     0.00000158     -8171.3885924843 -2.18E-06
    57 OT DIIS     0.80E-01    1.5     0.00000161     -8171.3885942974 -1.81E-06
    58 OT DIIS     0.80E-01    1.5     0.00000145     -8171.3885951862 -8.89E-07
    59 OT DIIS     0.80E-01    1.5     0.00000127     -8171.3885969308 -1.74E-06
    60 OT DIIS     0.80E-01    1.5     0.00000123     -8171.3885981112 -1.18E-06

  Leaving inner SCF loop after reaching    60 steps.


  Electronic density on regular grids:      -2399.9999997679        0.0000002321
  Core density on regular grids:             2399.9999998510       -0.0000001490
  Total dipole moment perpendicular to 
  the slab [electrons-Angstroem]:               2.1245037222
  Total charge density on r-space grids:        0.0000000831
  Total charge density g-space grids:           0.0000000831

  Overlap energy of the core charge distribution:               0.00000752854949
  Self energy of the core charge distribution:             -16301.40325826033950
  Core Hamiltonian energy:                                   4168.60881251867613
  Hartree energy:                                            5276.07521231935971
  Exchange-correlation energy:                              -1314.66937221744320

  Total energy:                                             -8171.38859811119710

  outer SCF iter =    2 RMS gradient =   0.12E-05 energy =      -8171.3885981112

  ----------------------------------- OT ---------------------------------------
  Minimizer      : DIIS                : direct inversion
                                         in the iterative subspace
                                         using   7 DIIS vectors
                                         safer DIIS on
  Preconditioner : FULL_SINGLE_INVERSE : inversion of 
                                         H + eS - 2*(Sc)(c^T*H*c+const)(Sc)^T
  Precond_solver : DEFAULT
  stepsize       :    0.08000000                  energy_gap     :    0.05000000
  eps_taylor     :   0.10000E-15                  max_taylor     :             4
  ----------------------------------- OT ---------------------------------------

  Step     Update method      Time    Convergence         Total energy    Change
  ------------------------------------------------------------------------------
     1 OT DIIS     0.80E-01    3.8     0.00000241     -8171.3885992180 -1.11E-06
     2 OT DIIS     0.80E-01    1.4     0.00000225     -8171.3886015553 -2.34E-06
     3 OT DIIS     0.80E-01    1.4     0.00000220     -8171.3886025581 -1.00E-06
     4 OT DIIS     0.80E-01    1.4     0.00000169     -8171.3886060792 -3.52E-06
     5 OT DIIS     0.80E-01    1.4     0.00000062     -8171.3886066108 -5.32E-07

  *** SCF run converged in     5 steps ***


  Electronic density on regular grids:      -2399.9999997679        0.0000002321
  Core density on regular grids:             2399.9999998510       -0.0000001490
  Total dipole moment perpendicular to 
  the slab [electrons-Angstroem]:               2.1243990793
  Total charge density on r-space grids:        0.0000000831
  Total charge density g-space grids:           0.0000000831

  Overlap energy of the core charge distribution:               0.00000752854949
  Self energy of the core charge distribution:             -16301.40325826033950
  Core Hamiltonian energy:                                   4168.60873988639287
  Hartree energy:                                            5276.07527341375680
  Exchange-correlation energy:                              -1314.66936917916746

  Total energy:                                             -8171.38860661080798

  outer SCF iter =    3 RMS gradient =   0.62E-06 energy =      -8171.3886066108
  outer SCF loop converged in   3 iterations or  125 steps


 ENERGY| Total FORCE_EVAL ( QS ) energy [a.u.]:            -8171.388606766997327

 ATOMIC FORCES in [a.u.]

 # Atom   Kind   Element          X              Y              Z
      1      1      Sr         -0.00002453    -0.00003205     0.02977912
      2      1      Sr          0.00002323     0.00003131     0.02979821
      3      1      Sr         -0.00002576    -0.00000373     0.02979427
      4      1      Sr          0.00002684    -0.00002752     0.02979123
      5      1      Sr         -0.00000625     0.00005325     0.02978630
      6      1      Sr          0.00000587    -0.00005153     0.02979793
      7      1      Sr         -0.00008344     0.00000653     0.02979201
      8      1      Sr          0.00008406     0.00002425     0.02978489
      9      1      Sr         -0.00010725    -0.00019731     0.00253955
     10      1      Sr          0.00010351     0.00012408     0.00274530
     11      1      Sr         -0.00010890     0.00002599     0.00269927
     12      1      Sr          0.00010829    -0.00011860     0.00266904
     13      1      Sr         -0.00001583     0.00031202     0.00258843
     14      1      Sr          0.00002224    -0.00023659     0.00270616
     15      1      Sr         -0.00039356    -0.00000558     0.00261961
     16      1      Sr          0.00039218     0.00009479     0.00258844
     17      1      Sr         -0.00070417    -0.00227354     0.01574361
     18      1      Sr          0.00050221     0.00102966     0.01379707
     19      1      Sr         -0.00058464     0.00109790     0.01408399
     20      1      Sr          0.00050970    -0.00082642     0.01465383
     21      1      Sr         -0.00059231     0.00287483     0.01434223
     22      1      Sr         -0.00052938    -0.00177018     0.01312015
     23      1      Sr         -0.00152517    -0.00074195     0.01332560
     24      1      Sr          0.00278481     0.00056242     0.01441172
     25      2      Hf          0.06680505     0.03439032    -0.04699988
     26      2      Hf          0.06680956     0.03439618    -0.04698887
     27      2      Hf          0.06680907     0.03440249    -0.04699738
     28      2      Hf         -0.08253863    -0.00366997    -0.00145300
     29      2      Hf         -0.08253894    -0.00366036    -0.00146121
     30      2      Hf         -0.08254137    -0.00366224    -0.00147113
     31      2      Hf          0.04450330     0.06927484     0.02514685
     32      2      Hf          0.04450250     0.06928667     0.02514650
     33      2      Hf          0.04450512     0.06928205     0.02514160
     34      2      Hf         -0.00699412    -0.06043683     0.04941825
     35      2      Hf         -0.00699747    -0.06042553     0.04942581
     36      2      Hf         -0.00699525    -0.06042173     0.04941914
     37      2      Hf          0.04359083     0.01057462    -0.00123138
     38      2      Hf          0.04357582     0.01059491    -0.00120002
     39      2      Hf          0.04356670     0.01064174    -0.00121283
     40      2      Hf         -0.03852905    -0.01697460     0.00703714
     41      2      Hf         -0.03855602    -0.01692953     0.00702567
     42      2      Hf         -0.03855756    -0.01694593     0.00698940
     43      2      Hf         -0.00401945     0.02371842     0.01273886
     44      2      Hf         -0.00398851     0.02376224     0.01272391
     45      2      Hf         -0.00398745     0.02377026     0.01266462
     46      2      Hf         -0.00141845    -0.02021741    -0.01300386
     47      2      Hf         -0.00139111    -0.02017521    -0.01290559
     48      2      Hf         -0.00138930    -0.02015351    -0.01296999
     49      2      Hf          0.04218884     0.01096953    -0.00695788
     50      2      Hf          0.04205636     0.01103418    -0.00639736
     51      2      Hf          0.04215980     0.01115745    -0.00658040
     52      2      Hf         -0.04232322    -0.01113040     0.00679409
     53      2      Hf         -0.04219752    -0.01097706     0.00693630
     54      2      Hf         -0.04219355    -0.01100175     0.00650938
     55      2      Hf         -0.00239945     0.02051022     0.00931631
     56      2      Hf         -0.00250916     0.02074852     0.00925697
     57      2      Hf         -0.00259222     0.02077262     0.00906826
     58      2      Hf          0.00244872    -0.02086720    -0.00919604
     59      2      Hf          0.00256785    -0.02075318    -0.00911617
     60      2      Hf          0.00245091    -0.02040081    -0.00925331
     61      2      Hf          0.03839646     0.01594169    -0.00772149
     62      2      Hf          0.03924580     0.01560720    -0.00638346
     63      2      Hf          0.03887787     0.01732522    -0.00651422
     64      2      Hf         -0.04294254    -0.01142161     0.00303140
     65      2      Hf         -0.04314500    -0.01070922     0.00235478
     66      2      Hf         -0.04394933    -0.01008068     0.00034213
     67      2      Hf          0.00154775     0.02002733     0.01213309
     68      2      Hf          0.00087408     0.02058950     0.01339936
     69      2      Hf          0.00153663     0.02082053     0.01190551
     70      2      Hf          0.00418352    -0.02457511    -0.01388224
     71      2      Hf          0.00293456    -0.02399509    -0.01200389
     72      2      Hf          0.00395051    -0.02245125    -0.01194260
     73      2      Hf          0.07551286     0.00770048    -0.00194711
     74      2      Hf          0.08253476    -0.00102259    -0.01037428
     75      2      Hf          0.07722964     0.00725529    -0.00682672
     76      2      Hf         -0.07229739    -0.03427250     0.03665972
     77      2      Hf         -0.06044962    -0.03084748     0.03546778
     78      2      Hf         -0.06506148    -0.03058312     0.03336001
     79      2      Hf         -0.00861470     0.04538310    -0.03916054
     80      2      Hf          0.01033088     0.05586538    -0.04132904
     81      2      Hf          0.00749296     0.06350314    -0.04853009
     82      2      Hf         -0.04643904    -0.06436774    -0.02849721
     83      2      Hf         -0.02765562    -0.06591404    -0.03343962
     84      2      Hf         -0.03437829    -0.06079432    -0.03221741
     85      3      Ti         -0.00004039    -0.00006415    -0.01566272
     86      3      Ti          0.00003620    -0.00004824    -0.01529460
     87      3      Ti          0.00013868     0.00001483    -0.01548920
     88      3      Ti         -0.00014499     0.00005060    -0.01541370
     89      3      Ti         -0.00010933     0.00006584    -0.01620753
     90      3      Ti          0.00010623     0.00004684    -0.01483383
     91      3      Ti         -0.00020998    -0.00005273    -0.01548070
     92      3      Ti          0.00020884    -0.00001517    -0.01585233
     93      3      Ti         -0.00016155     0.00002322    -0.00209463
     94      3      Ti          0.00025316    -0.00038382    -0.00030839
     95      3      Ti          0.00070779     0.00018404    -0.00147455
     96      3      Ti         -0.00082767     0.00044529    -0.00112512
     97      3      Ti         -0.00029530     0.00010420    -0.00585260
     98      3      Ti          0.00037950     0.00024349     0.00162636
     99      3      Ti         -0.00120536    -0.00035290    -0.00118111
    100      3      Ti          0.00121908    -0.00025030    -0.00306582
    101      3      Ti         -0.00168597     0.02823079    -0.03781219
    102      3      Ti         -0.00846281    -0.02461981    -0.01771662
    103      3      Ti          0.00034287    -0.00577884    -0.02571969
    104      3      Ti          0.01153020     0.01917817    -0.01822684
    105      3      Ti         -0.00198402    -0.00631543    -0.05079277
    106      3      Ti         -0.01187524     0.00308757     0.02692549
    107      3      Ti          0.01012186    -0.01070934    -0.03011174
    108      3      Ti          0.00161897    -0.00416696    -0.05130025
    109      4      O          -0.00060243    -0.00062483    -0.00086788
    110      4      O           0.00047779    -0.00023178    -0.00096329
    111      4      O          -0.00060373     0.00029867    -0.00099854
    112      4      O           0.00066368     0.00066206    -0.00086266
    113      4      O           0.00059596    -0.00008932    -0.00090474
    114      4      O          -0.00059035     0.00092847    -0.00103706
    115      4      O          -0.00031029    -0.00014882    -0.00103614
    116      4      O           0.00038070    -0.00078818    -0.00086606
    117      4      O          -0.00074038    -0.00020371    -0.00091679
    118      4      O           0.00086425    -0.00065813    -0.00090459
    119      4      O           0.00075600     0.00028362    -0.00094892
    120      4      O          -0.00080446     0.00067753    -0.00091958
    121      4      O           0.00001988     0.00068297    -0.00088345
    122      4      O          -0.00002440     0.00015246    -0.00105620
    123      4      O           0.00028596     0.00003242    -0.00091808
    124      4      O          -0.00034590    -0.00097190    -0.00098752
    125      4      O           0.00000769     0.00001650    -0.01543307
    126      4      O          -0.00001090     0.00000647    -0.01551445
    127      4      O          -0.00019780    -0.00019156    -0.01547770
    128      4      O           0.00020601    -0.00106317    -0.01554685
    129      4      O           0.00107032    -0.00007997    -0.01533909
    130      4      O          -0.00107392     0.00005534    -0.01568529
    131      4      O          -0.00012249     0.00106329    -0.01552243
    132      4      O           0.00011540     0.00019169    -0.01538559
    133      4      O          -0.00013658    -0.00066753    -0.00118197
    134      4      O          -0.00010057     0.00024970    -0.00096555
    135      4      O          -0.00083450     0.00020596    -0.00128072
    136      4      O           0.00071820     0.00049551    -0.00095371
    137      4      O           0.00126904    -0.00074904    -0.00041012
    138      4      O          -0.00098994     0.00124925    -0.00134988
    139      4      O           0.00015191    -0.00041676    -0.00137417
    140      4      O          -0.00011871    -0.00030057    -0.00047959
    141      4      O          -0.00088141    -0.00010400    -0.00094506
    142      4      O           0.00114394    -0.00028016    -0.00114640
    143      4      O           0.00069334     0.00016423    -0.00078425
    144      4      O          -0.00062911     0.00038838    -0.00130544
    145      4      O          -0.00047329     0.00012355    -0.00056421
    146      4      O           0.00019223     0.00037190    -0.00138151
    147      4      O           0.00095855     0.00073812    -0.00063935
    148      4      O          -0.00104034    -0.00143896    -0.00117085
    149      4      O           0.00002591    -0.00001989     0.00515087
    150      4      O          -0.00004548     0.00006247     0.00435455
    151      4      O          -0.00029217    -0.00021034     0.00477906
    152      4      O           0.00028395    -0.00106247     0.00463374
    153      4      O           0.00105002    -0.00007534     0.00618609
    154      4      O          -0.00106294     0.00003162     0.00327826
    155      4      O           0.00004037     0.00104076     0.00483085
    156      4      O          -0.00003877     0.00023260     0.00550761
    157      4      O          -0.00320969    -0.00677262    -0.01289866
    158      4      O           0.00083150     0.00456877     0.01242279
    159      4      O           0.01014422     0.00428234    -0.00448624
    160      4      O          -0.00589894     0.00532023     0.00970053
    161      4      O           0.00417351    -0.00792420     0.01191221
    162      4      O          -0.01294610     0.01482689    -0.00952718
    163      4      O           0.00406853    -0.00931436     0.00194570
    164      4      O          -0.00017094    -0.00262982     0.01026392
    165      4      O           0.00386170    -0.00129169    -0.00676687
    166      4      O          -0.00416192    -0.00149050     0.00438506
    167      4      O           0.00223389     0.00000047     0.01632085
    168      4      O          -0.01168765    -0.00154995    -0.01872301
    169      4      O          -0.00518229    -0.00471973     0.01202448
    170      4      O           0.01208396     0.00883709     0.00805491
    171      4      O           0.00472460     0.00970777     0.00539965
    172      4      O          -0.00620246    -0.01215480    -0.00035328
    173      4      O          -0.00011655    -0.00210428     0.01484357
    174      4      O          -0.00005258     0.00083288     0.01103039
    175      4      O          -0.00108685     0.00042869     0.01350326
    176      4      O          -0.00064939    -0.00244526     0.01241123
    177      4      O           0.00170715     0.00034257     0.02019354
    178      4      O          -0.00044978     0.00094173     0.00447274
    179      4      O          -0.00006990     0.00180712     0.01334481
    180      4      O          -0.00003604     0.00045632     0.01586959
    181      4      O           0.02231347     0.03757883     0.01390731
    182      4      O           0.02231758     0.03757102     0.01390817
    183      4      O           0.02231999     0.03757184     0.01391040
    184      4      O           0.00682099    -0.03723362     0.01257627
    185      4      O           0.00682141    -0.03723843     0.01257311
    186      4      O           0.00681989    -0.03723771     0.01257608
    187      4      O          -0.01541693    -0.01441056    -0.02759018
    188      4      O          -0.01541877    -0.01441323    -0.02758870
    189      4      O          -0.01541766    -0.01441063    -0.02758814
    190      4      O          -0.01334204    -0.01375197    -0.01730881
    191      4      O          -0.01333925    -0.01374985    -0.01732013
    192      4      O          -0.01333957    -0.01375622    -0.01731496
    193      4      O           0.01246221     0.00857337     0.00475350
    194      4      O           0.01246168     0.00857224     0.00475438
    195      4      O           0.01246222     0.00857896     0.00475509
    196      4      O           0.00277423     0.00040457    -0.01575850
    197      4      O           0.00277230     0.00040821    -0.01576840
    198      4      O           0.00277494     0.00040058    -0.01576537
    199      4      O          -0.03361922    -0.01177829     0.01053802
    200      4      O          -0.03362053    -0.01178264     0.01053765
    201      4      O          -0.03361954    -0.01178529     0.01053850
    202      4      O          -0.00113458    -0.02196100    -0.01573198
    203      4      O          -0.00113801    -0.02196890    -0.01572850
    204      4      O          -0.00113912    -0.02196605    -0.01571757
    205      4      O           0.01919363     0.00824936    -0.00131183
    206      4      O           0.01921537     0.00820803    -0.00132349
    207      4      O           0.01920733     0.00822006    -0.00131124
    208      4      O          -0.02246544    -0.00985098    -0.00010519
    209      4      O          -0.02246373    -0.00986946    -0.00011088
    210      4      O          -0.02245205    -0.00988918    -0.00010694
    211      4      O           0.00710799    -0.00184943     0.01166223
    212      4      O           0.00709853    -0.00186208     0.01168165
    213      4      O           0.00710195    -0.00185684     0.01170138
    214      4      O          -0.00264363    -0.00261406    -0.00225419
    215      4      O          -0.00262455    -0.00258815    -0.00242591
    216      4      O          -0.00264674    -0.00261409    -0.00235899
    217      4      O          -0.01164621     0.01579254     0.03261925
    218      4      O          -0.01163771     0.01577848     0.03262918
    219      4      O          -0.01162876     0.01579954     0.03263749
    220      4      O           0.01229317    -0.01522579    -0.01555757
    221      4      O           0.01230929    -0.01520985    -0.01560664
    222      4      O           0.01229672    -0.01524765    -0.01563930
    223      4      O           0.00395568     0.01074252    -0.00379692
    224      4      O           0.00396488     0.01072483    -0.00380636
    225      4      O           0.00396168     0.01071436    -0.00379955
    226      4      O          -0.00314938    -0.00840367    -0.00446446
    227      4      O          -0.00314453    -0.00843467    -0.00445071
    228      4      O          -0.00314423    -0.00843459    -0.00441601
    229      4      O           0.02004344     0.01030827    -0.00068428
    230      4      O           0.01996489     0.01024136    -0.00068924
    231      4      O           0.02001355     0.01015768    -0.00059873
    232      4      O          -0.02048948    -0.00953907     0.00066806
    233      4      O          -0.02034429    -0.00967053     0.00058700
    234      4      O          -0.02039394    -0.00974573     0.00060044
    235      4      O           0.00444858     0.00232130     0.00352260
    236      4      O           0.00446113     0.00227708     0.00356752
    237      4      O           0.00448631     0.00233014     0.00359497
    238      4      O          -0.00415364    -0.00383097    -0.00334911
    239      4      O          -0.00425546    -0.00370184    -0.00370999
    240      4      O          -0.00421695    -0.00387301    -0.00356238
    241      4      O          -0.01395585     0.01279870     0.01400152
    242      4      O          -0.01393234     0.01269601     0.01401066
    243      4      O          -0.01397667     0.01285273     0.01403836
    244      4      O           0.01247508    -0.01257977    -0.01387860
    245      4      O           0.01231622    -0.01250105    -0.01454414
    246      4      O           0.01239795    -0.01257261    -0.01428666
    247      4      O           0.00378685     0.01072239     0.00494937
    248      4      O           0.00373714     0.01068982     0.00486852
    249      4      O           0.00374713     0.01062142     0.00491944
    250      4      O          -0.00310059    -0.01018871    -0.00479363
    251      4      O          -0.00309328    -0.01044374    -0.00503318
    252      4      O          -0.00318662    -0.01037770    -0.00477620
    253      4      O           0.02086215     0.01115247     0.00019548
    254      4      O           0.02159584     0.01027361    -0.00016331
    255      4      O           0.02204730     0.00972106     0.00011777
    256      4      O          -0.01982223    -0.00800900     0.00138374
    257      4      O          -0.02019987    -0.00813792     0.00097585
    258      4      O          -0.02004147    -0.00856903     0.00115708
    259      4      O           0.00387240     0.00200173     0.00244198
    260      4      O           0.00362116     0.00168524     0.00222813
    261      4      O           0.00346177     0.00176186     0.00284648
    262      4      O          -0.00681713     0.00027939    -0.01022263
    263      4      O          -0.00663203     0.00066702    -0.01015727
    264      4      O          -0.00636773     0.00039203    -0.01260463
    265      4      O          -0.01378529     0.01527006     0.01532369
    266      4      O          -0.01391847     0.01503112     0.01536997
    267      4      O          -0.01380052     0.01555699     0.01583830
    268      4      O           0.01140355    -0.01538296    -0.03139024
    269      4      O           0.01127046    -0.01444439    -0.03182499
    270      4      O           0.01148241    -0.01500527    -0.03226363
    271      4      O           0.00362153     0.00837153     0.00447253
    272      4      O           0.00345050     0.00823487     0.00439167
    273      4      O           0.00372418     0.00735759     0.00437973
    274      4      O          -0.00352354    -0.00948006     0.00193167
    275      4      O          -0.00429349    -0.01000482     0.00198966
    276      4      O          -0.00420382    -0.01026379     0.00439899
    277      4      O          -0.00855129     0.03817737    -0.01450654
    278      4      O          -0.00514142     0.03285598    -0.00869224
    279      4      O          -0.00549163     0.03094975    -0.01016628
    280      4      O          -0.02521201    -0.03306848    -0.01137347
    281      4      O          -0.02502846    -0.03337496    -0.01165832
    282      4      O          -0.02057189    -0.03851495    -0.01420790
    283      4      O           0.01350348     0.01470039     0.01062500
    284      4      O           0.01424795     0.01235178     0.01556048
    285      4      O           0.01422183     0.01363243     0.01920033
    286      4      O           0.01233476     0.00744290     0.03885107
    287      4      O           0.01413665     0.00106897     0.00028046
    288      4      O           0.01551699     0.02624582     0.02965315
    289      4      O          -0.00639750     0.00395633     0.01488533
    290      4      O          -0.00513231    -0.00012933     0.01483484
    291      4      O          -0.00231993     0.00176812     0.01730978
    292      4      O          -0.00757349     0.00048984    -0.00320695
    293      4      O          -0.00507624    -0.00608492     0.00679355
    294      4      O          -0.00549080    -0.01661949    -0.01790983
    295      4      O           0.00235238     0.01955334     0.01609517
    296      4      O           0.00359663     0.02020995     0.01408941
    297      4      O           0.00108352     0.01766521     0.01489041
    298      4      O           0.02793440     0.01275490    -0.00126794
    299      4      O           0.03187515     0.00740599    -0.01792460
    300      4      O           0.03037987     0.01624175    -0.00538488
 SUM OF ATOMIC FORCES          -0.01145290    -0.00205317    -0.00386347     0.01226013

 STRESS| Analytical stress tensor [GPa]
 STRESS|                        x                   y                   z
 STRESS|      x        1.06209867714E+01  -6.92922361068E+00  -9.22040322641E-02
 STRESS|      y       -6.92922361068E+00   2.22295892248E+00   2.01182159471E-01
 STRESS|      z       -9.22040322641E-02   2.01182159471E-01  -2.54222441800E-02
 STRESS| 1/3 Trace                                             4.27284114990E+00
 STRESS| Determinant                                           4.28703809267E-01

 STRESS| Eigenvectors and eigenvalues of the analytical stress tensor [GPa]
 STRESS|                        1                   2                   3
 STRESS| Eigenvalues  -1.69040780346E+00  -1.74585495442E-02   1.45263898027E+01
 STRESS|      x           0.488543786367      0.048956886048      0.871164847839
 STRESS|      y           0.869050170585      0.061898522600     -0.490836402385
 STRESS|      z          -0.077953638842      0.996881034130     -0.012305851569

 -------------------------------------------------------------------------------
 -                                                                             -
 -                                DBCSR STATISTICS                             -
 -                                                                             -
 -------------------------------------------------------------------------------
 COUNTER                                    TOTAL       BLAS       SMM       ACC
 flops    14 x    16 x    16              1032192       0.0%    100.0%      0.0%     
 flops    16 x    16 x   614              1886208       0.0%    100.0%      0.0%     
 flops    16 x    16 x   626              1923072       0.0%    100.0%      0.0%     
 flops    16 x    16 x   628              1929216       0.0%    100.0%      0.0%     
 flops    26 x    16 x    16              6709248       0.0%    100.0%      0.0%     
 flops    13 x    16 x    16              7667712       0.0%    100.0%      0.0%     
 flops    14 x    32 x    16             38191104       0.0%    100.0%      0.0%     
 flops    14 x    16 x    32             38191104       0.0%    100.0%      0.0%     
 flops    32 x    16 x   614             67903488       0.0%    100.0%      0.0%     
 flops    32 x    16 x   626             69230592       0.0%    100.0%      0.0%     
 flops    32 x    16 x   628             69451776       0.0%    100.0%      0.0%     
 flops    16 x    32 x   614             71675904       0.0%    100.0%      0.0%     
 flops    16 x    32 x   626             73076736       0.0%    100.0%      0.0%     
 flops    16 x    32 x   628             73310208       0.0%    100.0%      0.0%     
 flops    26 x    32 x    16            248242176       0.0%    100.0%      0.0%     
 flops    26 x    16 x    32            248242176       0.0%    100.0%      0.0%     
 flops    13 x    32 x    16            283705344       0.0%    100.0%      0.0%     
 flops    13 x    16 x    32            283705344       0.0%    100.0%      0.0%     
 flops    14 x    16 x    14            957358080       0.0%    100.0%      0.0%     
 flops    65 x   144 x   144           1668625920       0.0%    100.0%      0.0%     
 flops    78 x   144 x   144           2002351104       0.0%    100.0%      0.0%     
 flops    14 x    14 x   144           2201472000       0.0%    100.0%      0.0%     
 flops   104 x   144 x   144           2669801472       0.0%    100.0%      0.0%     
 flops    14 x    32 x    32           2902523904       0.0%    100.0%      0.0%     
 flops    65 x   144 x   614           2942484480       0.0%    100.0%      0.0%     
 flops    65 x   128 x   144           2966446080       0.0%    100.0%      0.0%     
 flops    65 x   144 x   128           2966446080       0.0%    100.0%      0.0%     
 flops    65 x   144 x   626           2999992320       0.0%    100.0%      0.0%     
 flops    65 x   144 x   628           3009576960       0.0%    100.0%      0.0%     
 flops   118 x   144 x   144           3029197824       0.0%    100.0%      0.0%     
 flops    78 x   144 x   614           3530981376       0.0%    100.0%      0.0%     
 flops    78 x   128 x   144           3559735296       0.0%    100.0%      0.0%     
 flops    78 x   144 x   128           3559735296       0.0%    100.0%      0.0%     
 flops    78 x   144 x   626           3599990784       0.0%    100.0%      0.0%     
 flops    78 x   144 x   628           3611492352       0.0%    100.0%      0.0%     
 flops   143 x   144 x   144           3670977024       0.0%    100.0%      0.0%     
 flops   144 x   144 x   144           3696648192       0.0%    100.0%      0.0%     
 flops    13 x    16 x    14           3727214400       0.0%    100.0%      0.0%     
 flops    14 x    16 x    13           3727214400       0.0%    100.0%      0.0%     
 flops    14 x    14 x   128           3913728000       0.0%    100.0%      0.0%     
 flops    26 x    16 x    14           4006562560       0.0%    100.0%      0.0%     
 flops    14 x    16 x    26           4006562560       0.0%    100.0%      0.0%     
 flops   104 x   144 x   614           4707975168       0.0%    100.0%      0.0%     
 flops   104 x   128 x   144           4746313728       0.0%    100.0%      0.0%     
 flops   104 x   144 x   128           4746313728       0.0%    100.0%      0.0%     
 flops   104 x   144 x   626           4799987712       0.0%    100.0%      0.0%     
 flops   104 x   144 x   628           4815323136       0.0%    100.0%      0.0%     
 flops    65 x   128 x   614           5231083520       0.0%    100.0%      0.0%     
 flops    65 x   128 x   128           5273681920       0.0%    100.0%      0.0%     
 flops    32 x    32 x   614           5304016896       0.0%    100.0%      0.0%     
 flops    65 x   128 x   626           5333319680       0.0%    100.0%      0.0%     
 flops   118 x   144 x   614           5341741056       0.0%    100.0%      0.0%     
 flops    65 x   128 x   628           5350359040       0.0%    100.0%      0.0%     
 flops   118 x   128 x   144           5385240576       0.0%    100.0%      0.0%     
 flops   118 x   144 x   128           5385240576       0.0%    100.0%      0.0%     
 flops    32 x    32 x   626           5407678464       0.0%    100.0%      0.0%     
 flops    32 x    32 x   628           5424955392       0.0%    100.0%      0.0%     
 flops   118 x   144 x   626           5446139904       0.0%    100.0%      0.0%     
 flops   118 x   144 x   628           5463539712       0.0%    100.0%      0.0%     
 flops    78 x   128 x   614           6277300224       0.0%    100.0%      0.0%     
 flops    78 x   128 x   128           6328418304       0.0%    100.0%      0.0%     
 flops    78 x   128 x   626           6399983616       0.0%    100.0%      0.0%     
 flops    78 x   128 x   628           6420430848       0.0%    100.0%      0.0%     
 flops   143 x   144 x   614           6473465856       0.0%    100.0%      0.0%     
 flops   144 x   144 x   614           6518734848       0.0%    100.0%      0.0%     
 flops   143 x   128 x   144           6526181376       0.0%    100.0%      0.0%     
 flops   143 x   144 x   128           6526181376       0.0%    100.0%      0.0%     
 flops   144 x   128 x   144           6571819008       0.0%    100.0%      0.0%     
 flops   144 x   144 x   128           6571819008       0.0%    100.0%      0.0%     
 flops   143 x   144 x   626           6599983104       0.0%    100.0%      0.0%     
 flops   143 x   144 x   628           6621069312       0.0%    100.0%      0.0%     
 flops   144 x   144 x   626           6646136832       0.0%    100.0%      0.0%     
 flops   144 x   144 x   628           6667370496       0.0%    100.0%      0.0%     
 flops   130 x   144 x   144           6674503680       0.0%    100.0%      0.0%     
 flops   156 x   144 x   144           8009404416       0.0%    100.0%      0.0%     
 flops   104 x   128 x   614           8369733632       0.0%    100.0%      0.0%     
 flops    14 x    13 x   144           8397095616       0.0%    100.0%      0.0%     
 flops    13 x    14 x   144           8403752448       0.0%    100.0%      0.0%     
 flops   104 x   128 x   128           8437891072       0.0%    100.0%      0.0%     
 flops   104 x   128 x   626           8533311488       0.0%    100.0%      0.0%     
 flops   104 x   128 x   628           8560574464       0.0%    100.0%      0.0%     
 flops    14 x    26 x   144           8957579904       0.0%    100.0%      0.0%     
 flops    26 x    14 x   144           8957579904       0.0%    100.0%      0.0%     
 flops    65 x   144 x   160           9270144000       0.0%    100.0%      0.0%     
 flops    65 x   160 x   144           9270144000       0.0%    100.0%      0.0%     
 flops   183 x   144 x   144           9395647488       0.0%    100.0%      0.0%     
 flops   118 x   128 x   614           9496428544       0.0%    100.0%      0.0%     
 flops   118 x   128 x   128           9573761024       0.0%    100.0%      0.0%     
 flops   118 x   128 x   626           9682026496       0.0%    100.0%      0.0%     
 flops   118 x   128 x   628           9712959488       0.0%    100.0%      0.0%     
 flops    78 x   144 x   160          11124172800       0.0%    100.0%      0.0%     
 flops    78 x   160 x   144          11124172800       0.0%    100.0%      0.0%     
 flops   143 x   128 x   614          11508383744       0.0%    100.0%      0.0%     
 flops   144 x   128 x   614          11588861952       0.0%    100.0%      0.0%     
 flops   143 x   128 x   128          11602100224       0.0%    100.0%      0.0%     
 flops   144 x   128 x   128          11683233792       0.0%    100.0%      0.0%     
 flops   143 x   128 x   626          11733303296       0.0%    100.0%      0.0%     
 flops   130 x   144 x   614          11769937920       0.0%    100.0%      0.0%     
 flops   143 x   128 x   628          11770789888       0.0%    100.0%      0.0%     
 flops   144 x   128 x   626          11815354368       0.0%    100.0%      0.0%     
 flops   144 x   128 x   628          11853103104       0.0%    100.0%      0.0%     
 flops   130 x   128 x   144          11865784320       0.0%    100.0%      0.0%     
 flops   130 x   144 x   128          11865784320       0.0%    100.0%      0.0%     
 flops   130 x   144 x   626          11999969280       0.0%    100.0%      0.0%     
 flops   130 x   144 x   628          12038307840       0.0%    100.0%      0.0%     
 flops    14 x    14 x   160          12230400000       0.0%    100.0%      0.0%     
 flops   156 x   144 x   614          14123925504       0.0%    100.0%      0.0%     
 flops   156 x   128 x   144          14238941184       0.0%    100.0%      0.0%     
 flops   156 x   144 x   128          14238941184       0.0%    100.0%      0.0%     
 flops   156 x   144 x   626          14399963136       0.0%    100.0%      0.0%     
 flops   156 x   144 x   628          14445969408       0.0%    100.0%      0.0%     
 flops   104 x   144 x   160          14832230400       0.0%    100.0%      0.0%     
 flops   104 x   160 x   144          14832230400       0.0%    100.0%      0.0%     
 flops    14 x    13 x   128          14928169984       0.0%    100.0%      0.0%     
 flops    13 x    14 x   128          14940004352       0.0%    100.0%      0.0%     
 flops    14 x    26 x   128          15924586496       0.0%    100.0%      0.0%     
 flops    26 x    14 x   128          15924586496       0.0%    100.0%      0.0%     
 flops    65 x   160 x   614          16347136000       0.0%    100.0%      0.0%     
 flops    65 x   128 x   160          16480256000       0.0%    100.0%      0.0%     
 flops    65 x   160 x   128          16480256000       0.0%    100.0%      0.0%     
 flops   183 x   144 x   614          16568451072       0.0%    100.0%      0.0%     
 flops    65 x   160 x   626          16666624000       0.0%    100.0%      0.0%     
 flops   183 x   128 x   144          16703373312       0.0%    100.0%      0.0%     
 flops   183 x   144 x   128          16703373312       0.0%    100.0%      0.0%     
 flops    65 x   160 x   628          16719872000       0.0%    100.0%      0.0%     
 flops   118 x   160 x   144          16828876800       0.0%    100.0%      0.0%     
 flops   118 x   144 x   160          16828876800       0.0%    100.0%      0.0%     
 flops   183 x   144 x   626          16892264448       0.0%    100.0%      0.0%     
 flops   183 x   144 x   628          16946233344       0.0%    100.0%      0.0%     
 flops    26 x    32 x    32          18866405376       0.0%    100.0%      0.0%     
 flops    78 x   160 x   614          19616563200       0.0%    100.0%      0.0%     
 flops    78 x   128 x   160          19776307200       0.0%    100.0%      0.0%     
 flops    78 x   160 x   128          19776307200       0.0%    100.0%      0.0%     
 flops    64 x   144 x   144          19935756288       0.0%    100.0%      0.0%     
 flops    78 x   160 x   626          19999948800       0.0%    100.0%      0.0%     
 flops    78 x   160 x   628          20063846400       0.0%    100.0%      0.0%     
 flops   143 x   144 x   160          20394316800       0.0%    100.0%      0.0%     
 flops   143 x   160 x   144          20394316800       0.0%    100.0%      0.0%     
 flops   144 x   144 x   160          20536934400       0.0%    100.0%      0.0%     
 flops   144 x   160 x   144          20536934400       0.0%    100.0%      0.0%     
 flops   130 x   128 x   614          20924334080       0.0%    100.0%      0.0%     
 flops   130 x   128 x   128          21094727680       0.0%    100.0%      0.0%     
 flops   130 x   128 x   626          21333278720       0.0%    100.0%      0.0%     
 flops   130 x   128 x   628          21401436160       0.0%    100.0%      0.0%     
 flops    13 x    32 x    32          21561606144       0.0%    100.0%      0.0%     
 flops   156 x   128 x   614          25109200896       0.0%    100.0%      0.0%     
 flops   156 x   128 x   128          25313673216       0.0%    100.0%      0.0%     
 flops   156 x   128 x   626          25599934464       0.0%    100.0%      0.0%     
 flops   156 x   128 x   628          25681723392       0.0%    100.0%      0.0%     
 flops    13 x    16 x    13          25813357440       0.0%    100.0%      0.0%     
 flops   104 x   160 x   614          26155417600       0.0%    100.0%      0.0%     
 flops   170 x   144 x   144          26184591360       0.0%    100.0%      0.0%     
 flops   104 x   128 x   160          26368409600       0.0%    100.0%      0.0%     
 flops   104 x   160 x   128          26368409600       0.0%    100.0%      0.0%     
 flops   104 x   160 x   626          26666598400       0.0%    100.0%      0.0%     
 flops   104 x   160 x   628          26751795200       0.0%    100.0%      0.0%     
 flops   183 x   128 x   614          29455024128       0.0%    100.0%      0.0%     
 flops   118 x   160 x   614          29676339200       0.0%    100.0%      0.0%     
 flops   183 x   128 x   128          29694885888       0.0%    100.0%      0.0%     
 flops   118 x   160 x   128          29918003200       0.0%    100.0%      0.0%     
 flops   118 x   128 x   160          29918003200       0.0%    100.0%      0.0%     
 flops   183 x   128 x   626          30030692352       0.0%    100.0%      0.0%     
 flops   183 x   128 x   628          30126637056       0.0%    100.0%      0.0%     
 flops   118 x   160 x   626          30256332800       0.0%    100.0%      0.0%     
 flops   118 x   160 x   628          30352998400       0.0%    100.0%      0.0%     
 flops    32 x   144 x   144          31327617024       0.0%    100.0%      0.0%     
 flops    26 x    16 x    13          31886920000       0.0%    100.0%      0.0%     
 flops    13 x    16 x    26          31886920000       0.0%    100.0%      0.0%     
 flops    26 x    16 x    26          33947746560       0.0%    100.0%      0.0%     
 flops    64 x   128 x   144          35441344512       0.0%    100.0%      0.0%     
 flops    64 x   144 x   128          35441344512       0.0%    100.0%      0.0%     
 flops   143 x   160 x   614          35963699200       0.0%    100.0%      0.0%     
 flops   144 x   160 x   614          36215193600       0.0%    100.0%      0.0%     
 flops   143 x   128 x   160          36256563200       0.0%    100.0%      0.0%     
 flops   143 x   160 x   128          36256563200       0.0%    100.0%      0.0%     
 flops   144 x   128 x   160          36510105600       0.0%    100.0%      0.0%     
 flops   144 x   160 x   128          36510105600       0.0%    100.0%      0.0%     
 flops   143 x   160 x   626          36666572800       0.0%    100.0%      0.0%     
 flops   143 x   160 x   628          36783718400       0.0%    100.0%      0.0%     
 flops   144 x   160 x   626          36922982400       0.0%    100.0%      0.0%     
 flops   144 x   160 x   628          37040947200       0.0%    100.0%      0.0%     
 flops   130 x   160 x   144          37080576000       0.0%    100.0%      0.0%     
 flops   130 x   144 x   160          37080576000       0.0%    100.0%      0.0%     
 flops   156 x   144 x   160          44496691200       0.0%    100.0%      0.0%     
 flops   156 x   160 x   144          44496691200       0.0%    100.0%      0.0%     
 flops   170 x   144 x   614          46174371840       0.0%    100.0%      0.0%     
 flops   170 x   128 x   144          46550384640       0.0%    100.0%      0.0%     
 flops   170 x   144 x   128          46550384640       0.0%    100.0%      0.0%     
 flops    14 x    13 x   160          46650531200       0.0%    100.0%      0.0%     
 flops    13 x    14 x   160          46687513600       0.0%    100.0%      0.0%     
 flops   170 x   144 x   626          47076802560       0.0%    100.0%      0.0%     
 flops   170 x   144 x   628          47227207680       0.0%    100.0%      0.0%     
 flops    14 x    26 x   160          49764332800       0.0%    100.0%      0.0%     
 flops    26 x    14 x   160          49764332800       0.0%    100.0%      0.0%     
 flops    65 x   160 x   160          51500800000       0.0%    100.0%      0.0%     
 flops   183 x   160 x   144          52198041600       0.0%    100.0%      0.0%     
 flops   183 x   144 x   160          52198041600       0.0%    100.0%      0.0%     
 flops    32 x   128 x   144          55693541376       0.0%    100.0%      0.0%     
 flops    32 x   144 x   128          55693541376       0.0%    100.0%      0.0%     
 flops    13 x    13 x   144          58967977536       0.0%    100.0%      0.0%     
 flops    78 x   160 x   160          61800960000       0.0%    100.0%      0.0%     
 flops    64 x   128 x   128          63006834688       0.0%    100.0%      0.0%     
 flops   130 x   160 x   614          65388544000       0.0%    100.0%      0.0%     
 flops   130 x   160 x   128          65921024000       0.0%    100.0%      0.0%     
 flops   130 x   128 x   160          65921024000       0.0%    100.0%      0.0%     
 flops   130 x   160 x   626          66666496000       0.0%    100.0%      0.0%     
 flops   130 x   160 x   628          66879488000       0.0%    100.0%      0.0%     
 flops    14 x    32 x    14          70844497920       0.0%    100.0%      0.0%     
 flops    26 x    13 x   144          71116216704       0.0%    100.0%      0.0%     
 flops    13 x    26 x   144          71128579392       0.0%    100.0%      0.0%     
 flops    26 x    26 x   144          76335412608       0.0%    100.0%      0.0%     
 flops   156 x   160 x   614          78466252800       0.0%    100.0%      0.0%     
 flops    64 x   144 x   614          78745411584       0.0%    100.0%      0.0%     
 flops   156 x   128 x   160          79105228800       0.0%    100.0%      0.0%     
 flops   156 x   160 x   128          79105228800       0.0%    100.0%      0.0%     
 flops   156 x   160 x   626          79999795200       0.0%    100.0%      0.0%     
 flops   156 x   160 x   628          80255385600       0.0%    100.0%      0.0%     
 flops    64 x   144 x   626          80284409856       0.0%    100.0%      0.0%     
 flops    64 x   144 x   628          80540909568       0.0%    100.0%      0.0%     
 flops   170 x   128 x   614          82087772160       0.0%    100.0%      0.0%     
 flops   104 x   160 x   160          82401280000       0.0%    100.0%      0.0%     
 flops   170 x   128 x   128          82756239360       0.0%    100.0%      0.0%     
 flops   170 x   128 x   626          83692093440       0.0%    100.0%      0.0%     
 flops   170 x   128 x   628          83959480320       0.0%    100.0%      0.0%     
 flops   183 x   160 x   614          92046950400       0.0%    100.0%      0.0%     
 flops   183 x   160 x   128          92796518400       0.0%    100.0%      0.0%     
 flops   183 x   128 x   160          92796518400       0.0%    100.0%      0.0%     
 flops   118 x   160 x   160          93493760000       0.0%    100.0%      0.0%     
 flops   183 x   160 x   626          93845913600       0.0%    100.0%      0.0%     
 flops   183 x   160 x   628          94145740800       0.0%    100.0%      0.0%     
 flops    32 x   128 x   128          99010740224       0.0%    100.0%      0.0%     
 flops    13 x    13 x   128         104831960064       0.0%    100.0%      0.0%     
 flops    64 x   160 x   144         110754201600       0.0%    100.0%      0.0%     
 flops    64 x   144 x   160         110754201600       0.0%    100.0%      0.0%     
 flops   143 x   160 x   160         113301760000       0.0%    100.0%      0.0%     
 flops   144 x   160 x   160         114094080000       0.0%    100.0%      0.0%     
 flops    32 x   144 x   614         123742789632       0.0%    100.0%      0.0%     
 flops    32 x   144 x   626         126161215488       0.0%    100.0%      0.0%     
 flops    26 x    13 x   128         126428829696       0.0%    100.0%      0.0%     
 flops    13 x    26 x   128         126450807808       0.0%    100.0%      0.0%     
 flops    32 x   144 x   628         126564286464       0.0%    100.0%      0.0%     
 flops    26 x    26 x   128         135707400192       0.0%    100.0%      0.0%     
 flops    64 x   128 x   614         139991842816       0.0%    100.0%      0.0%     
 flops    64 x   128 x   626         142727839744       0.0%    100.0%      0.0%     
 flops    64 x   128 x   628         143183839232       0.0%    100.0%      0.0%     
 flops   170 x   144 x   160         145469952000       0.0%    100.0%      0.0%     
 flops   170 x   160 x   144         145469952000       0.0%    100.0%      0.0%     
 flops    32 x   160 x   144         174042316800       0.0%    100.0%      0.0%     
 flops    32 x   144 x   160         174042316800       0.0%    100.0%      0.0%     
 flops    64 x   160 x   128         196896358400       0.0%    100.0%      0.0%     
 flops    64 x   128 x   160         196896358400       0.0%    100.0%      0.0%     
 flops   130 x   160 x   160         206003200000       0.0%    100.0%      0.0%     
 flops    32 x   128 x   614         219987181568       0.0%    100.0%      0.0%     
 flops    32 x   128 x   626         224286605312       0.0%    100.0%      0.0%     
 flops    32 x   128 x   628         225003175936       0.0%    100.0%      0.0%     
 flops   156 x   160 x   160         247203840000       0.0%    100.0%      0.0%     
 flops   170 x   160 x   614         256524288000       0.0%    100.0%      0.0%     
 flops   170 x   128 x   160         258613248000       0.0%    100.0%      0.0%     
 flops   170 x   160 x   128         258613248000       0.0%    100.0%      0.0%     
 flops   170 x   160 x   626         261537792000       0.0%    100.0%      0.0%     
 flops   170 x   160 x   628         262373376000       0.0%    100.0%      0.0%     
 flops    14 x    32 x    13         275813865600       0.0%    100.0%      0.0%     
 flops    13 x    32 x    14         275813865600       0.0%    100.0%      0.0%     
 flops   183 x   160 x   160         289989120000       0.0%    100.0%      0.0%     
 flops    14 x    32 x    26         296485629440       0.0%    100.0%      0.0%     
 flops    26 x    32 x    14         296485629440       0.0%    100.0%      0.0%     
 flops    32 x   160 x   128         309408563200       0.0%    100.0%      0.0%     
 flops    32 x   128 x   160         309408563200       0.0%    100.0%      0.0%     
 flops    13 x    13 x   160         327599875200       0.0%    100.0%      0.0%     
 flops    26 x    13 x   160         395090092800       0.0%    100.0%      0.0%     
 flops    13 x    26 x   160         395158774400       0.0%    100.0%      0.0%     
 flops    26 x    26 x   160         424085625600       0.0%    100.0%      0.0%     
 flops    64 x   160 x   614         437474508800       0.0%    100.0%      0.0%     
 flops    64 x   160 x   626         446024499200       0.0%    100.0%      0.0%     
 flops    64 x   160 x   628         447449497600       0.0%    100.0%      0.0%     
 flops    64 x   160 x   160         615301120000       0.0%    100.0%      0.0%     
 flops    32 x   160 x   614         687459942400       0.0%    100.0%      0.0%     
 flops    32 x   160 x   626         700895641600       0.0%    100.0%      0.0%     
 flops    32 x   160 x   628         703134924800       0.0%    100.0%      0.0%     
 flops   170 x   160 x   160         808166400000       0.0%    100.0%      0.0%     
 flops    32 x   160 x   160         966901760000       0.0%    100.0%      0.0%     
 flops    13 x    32 x    13        1910188450560       0.0%    100.0%      0.0%     
 flops    26 x    32 x    13        2359632080000       0.0%    100.0%      0.0%     
 flops    13 x    32 x    26        2359632080000       0.0%    100.0%      0.0%     
 flops    26 x    32 x    26        2512133245440       0.0%    100.0%      0.0%     
 flops inhomo. stacks              13870162821120     100.0%      0.0%      0.0%
 flops total                        43.390762E+12      32.0%     68.0%      0.0%
 flops max/rank                      1.552850E+12      32.1%     67.9%      0.0%
 matmuls inhomo. stacks                   1041710     100.0%      0.0%      0.0%
 matmuls total                          580311348       0.2%     99.8%      0.0%
 number of processed stacks              11172944       9.3%     90.7%      0.0%
 average stack size                                     1.0      57.2       0.0
 marketing flops                    51.584361E+12
 -------------------------------------------------------------------------------
 # multiplications                           2724
 max memory usage/rank               1.295041E+09
 # max total images/rank                        2
 # max 3D layers                                1
 # MPI messages exchanged                 1133184
 MPI messages size (bytes):
  total size                         1.141197E+12
  min size                           0.000000E+00
  max size                           6.430720E+06
  average size                       1.007071E+06
 MPI breakdown and total messages size (bytes):
             size <=      128                1752                        0
       128 < size <=     8192                   0                        0
      8192 < size <=    32768                  18                   589824
     32768 < size <=   131072               20394               2668161024
    131072 < size <=  4194304             1067508             895616033320
   4194304 < size <= 16777216               43512             242915119608
  16777216 < size                               0                        0
 -------------------------------------------------------------------------------

 *** WARNING in dbcsr_mm.F:301 :: Using a non-square number of MPI ranks ***
 *** might lead to poor performance. Used ranks: 32 Suggested: 36 64     ***

 -------------------------------------------------------------------------------
 -                                                                             -
 -                      DBCSR MESSAGE PASSING PERFORMANCE                      -
 -                                                                             -
 -------------------------------------------------------------------------------
 ROUTINE             CALLS      AVE VOLUME [Bytes]
 MP_Bcast              286                     12.
 MP_Allreduce        15288                     41.
 MP_Alltoall          9013                 109602.
 MP_ISend            84948                 449018.
 MP_IRecv            84948                 443940.
 -------------------------------------------------------------------------------

 -------------------------------------------------------------------------------
 -                                                                             -
 -                                DBM STATISTICS                               -
 -                                                                             -
 -------------------------------------------------------------------------------
    M  x    N  x    K                                          COUNT     PERCENT
 -------------------------------------------------------------------------------

 -------------------------------------------------------------------------------
 -                                                                             -
 -                                GRID STATISTICS                              -
 -                                                                             -
 -------------------------------------------------------------------------------
 LP    KERNEL             BACKEND                              COUNT     PERCENT
 5     collocate general  CPU                               24975594      24.75%
 5     integrate general  CPU                               24777375      24.56%
 4     collocate general  CPU                               14381892      14.25%
 4     integrate general  CPU                               14267750      14.14%
 6     collocate general  CPU                               11078802      10.98%
 6     integrate general  CPU                               10990875      10.89%
 8     integrate general  CPU                                 198219       0.20%
 7     integrate general  CPU                                 114142       0.11%
 9     integrate general  CPU                                  87927       0.09%
 0     collocate general  CPU                                   9600       0.01%
 3     integrate general  CPU                                   9600       0.01%
 -------------------------------------------------------------------------------

 MEMORY| Estimated peak process memory [MiB]                                1236

 -------------------------------------------------------------------------------
 -                                                                             -
 -                         MESSAGE PASSING PERFORMANCE                         -
 -                                                                             -
 -------------------------------------------------------------------------------

 ROUTINE             CALLS      AVE VOLUME [Bytes]
 MP_Group                5
 MP_Bcast             9809                 120566.
 MP_Allreduce        25630                   1467.
 MP_Sync               125
 MP_Alltoall          3043               23332991.
 MP_SendRecv         11718                  93296.
 MP_ISendRecv        11718                  93296.
 MP_Wait             33726
 MP_ISend            19732                 488405.
 MP_IRecv            19732                 488405.
 -------------------------------------------------------------------------------


 -------------------------------------------------------------------------------
 -                                                                             -
 -                           R E F E R E N C E S                               -
 -                                                                             -
 -------------------------------------------------------------------------------
 
 CP2K version 2024.3, the CP2K developers group (2024).
 CP2K is freely available from https://www.cp2k.org/ .
 
 T. D. Kuehne, M. Iannuzzi, M. Del Ben, V. V. Rybkin, P. Seewald, F. Stein, T. 
 Laino, R. Z. Khaliullin, O. Schuett, F. Schiffmann, D. Golze, J. Wilhelm, S. 
 Chulkov, M. H. Bani-Hashemian, V. Weber, U. Borstnik, M. Taillefumier, A. S. 
 Jakobovits, A. Lazzaro, H. Pabst, T. Mueller, R. Schade, M. Guidon, S. 
 Andermatt, N. Holmberg, G. K. Schenter, A. Hehn, A. Bussy, F. Belleflamme, G. 
 Tabacchi, A. Gloess, M. Lass, I. Bethune, C. J. Mundy, C. Plessl, M. Watkins, 
 J. VandeVondele, M. Krack, J. Hutter.
 J. Chem. Phys. 152, 194103 (2020).
 CP2K: An electronic structure and molecular dynamics software package - 
 Quickstep: Efficient and accurate electronic structure calculations.
 https://doi.org/10.1063/5.0007045

 O. Schuett, P. Messmer, J. Hutter, J. VandeVondele.
 Electronic Structure Calculations on Graphics Processing Units, 173-190 (2016).
 GPU-Accelerated Sparse Matrix-Matrix Multiplication for Linear Scaling Density 
 Functional Theory.
 https://doi.org/10.1002/9781118670712.ch8

 A. Heinecke, G. Henry, M. Hutchinson, H. Pabst.
 Proceedings of Intl. Supercomputing Conference, 981-991 (2016).
 LIBXSMM: Accelerating Small Matrix Multiplications by Runtime Code Generation.
 https://doi.org/10.1109/SC.2016.83

 J. Hutter, M. Iannuzzi, F. Schiffmann, J. VandeVondele.
 WIREs Comput Mol Sci. 4, 15-25 (2014).
 CP2K: atomistic simulations of condensed matter systems.
 https://doi.org/10.1002/wcms.1159

 U. Borstnik, J. VandeVondele, V. Weber, J. Hutter.
 Parallel Comput. 40, 47-58 (2014).
 Sparse matrix multiplication: The distributed block-compressed sparse row 
 library.
 https://doi.org/10.1016/j.parco.2014.03.012

 A. Marek, V. Blum, R. Johanni, V. Havu, B. Lang, T. Auckenthaler, A. Heinecke, 
 H. Bungartz, H. Lederer.
 J. Phys. Condens. Matter 26, 213201 (2014).
 The ELPA library: scalable parallel eigenvalue solutions for electronic 
 structure theory and computational science.
 https://doi.org/10.1088/0953-8984/26/21/213201

 J. P. Perdew, A. Ruzsinszky, G. I. Csonka, O. A. Vydrov, G. E. Scuseria, L. A. 
 Constantin, X. Zhou, K. Burke.
 Phys. Rev. Lett. 100, 136406-136409 (2008).
 Restoring the Density-Gradient Expansion for Exchange in Solids and Surfaces.
 https://doi.org/10.1103/PhysRevLett.100.136406

 J. VandeVondele, J. Hutter.
 J. Chem. Phys. 127, 114105 (2007).
 Gaussian basis sets for accurate calculations on molecular systems in gas and 
 condensed phases.
 https://doi.org/10.1063/1.2770708

 J. VandeVondele, M. Krack, F. Mohamed, M. Parrinello, T. Chassaing, J. Hutter.
 Comput. Phys. Commun. 167, 103-128 (2005).
 QUICKSTEP: Fast and accurate density functional calculations using a mixed 
 Gaussian and plane waves approach.
 https://doi.org/10.1016/j.cpc.2004.12.014

 M. Krack.
 Theor. Chem. Acc. 114, 145-152 (2005).
 Pseudopotentials for H to Kr optimized for gradient-corrected 
 exchange-correlation functionals.
 https://doi.org/10.1007/s00214-005-0655-y

 M. Frigo, S. G. Johnson.
 Proc. IEEE 93, 216-231 (2005).
 The design and implementation of FFTW3.
 https://doi.org/10.1109/JPROC.2004.840301

 J. VandeVondele, J. Hutter.
 J. Chem. Phys. 118, 4365-4369 (2003).
 An efficient orbital transformation method for electronic structure 
 calculations.
 https://doi.org/10.1063/1.1543154

 C. Hartwigsen, S. Goedecker, J. Hutter.
 Phys. Rev. B 58, 3641-3662 (1998).
 Relativistic separable dual-space Gaussian pseudopotentials from H to Rn.
 https://doi.org/10.1103/PhysRevB.58.3641

 G. Lippert, J. Hutter, M. Parrinello.
 Mol. Phys. 92, 477-487 (1997).
 A hybrid Gaussian and plane wave density functional scheme.
 https://doi.org/10.1080/002689797170220

 S. Goedecker, M. Teter, J. Hutter.
 Phys. Rev. B 54, 1703-1710 (1996).
 Separable dual-space Gaussian pseudopotentials.
 https://doi.org/10.1103/PhysRevB.54.1703

 J. P. Perdew, K. Burke, M. Ernzerhof.
 Phys. Rev. Lett. 77, 3865-3868 (1996).
 Generalized gradient approximation made simple.
 https://doi.org/10.1103/PhysRevLett.77.3865


 -------------------------------------------------------------------------------
 -                                                                             -
 -                                T I M I N G                                  -
 -                                                                             -
 -------------------------------------------------------------------------------
 SUBROUTINE                       CALLS  ASD         SELF TIME        TOTAL TIME
                                MAXIMUM       AVERAGE  MAXIMUM  AVERAGE  MAXIMUM
 CP2K                                 1  1.0    1.388    1.395  207.748  207.749
 qs_forces                            1  2.0    0.001    0.002  205.705  205.706
 qs_energies                          1  3.0    0.000    0.000  197.889  197.892
 scf_env_do_scf                       1  4.0    0.000    0.001  195.564  195.566
 scf_env_do_scf_inner_loop          125  5.0    0.004    0.013  190.258  190.261
 rebuild_ks_matrix                  126  7.0    0.001    0.001   90.534   90.728
 qs_ks_build_kohn_sham_matrix       126  8.0    0.023    0.026   90.533   90.727
 qs_ks_update_qs_env                128  6.0    0.002    0.002   88.587   88.778
 qs_rho_update_rho_low              126  6.0    0.001    0.001   56.078   56.114
 calculate_rho_elec                 126  7.0    0.523    0.616   56.077   56.114
 sum_up_and_integrate               126  9.0    0.002    0.003   51.079   51.103
 integrate_v_rspace                 126 10.0    0.005    0.006   50.993   51.021
 qs_scf_new_mos                     125  6.0    0.001    0.001   48.290   48.451
 qs_scf_loop_do_ot                  125  7.0    0.001    0.001   48.289   48.450
 ot_scf_mini                        125  8.0    0.004    0.005   46.064   46.254
 grid_collocate_task_list           126  8.0   41.690   44.828   41.690   44.828
 grid_integrate_task_list           126 11.0   39.799   41.967   39.799   41.967
 dbcsr_multiply_generic            2724 11.1    0.145    0.159   35.370   35.911
 fft_wrap_pw1pw2                   2521 11.1    0.047    0.054   32.358   32.585
 fft_wrap_pw1pw2_300               1513 12.6    1.989    2.065   31.011   31.160
 qs_vxc_create                      126  9.0    0.003    0.003   27.015   27.017
 xc_vxc_pw_create                   126 10.0    0.692    0.808   27.012   27.015
 multiply_cannon                   2724 12.1    0.294    0.328   22.519   24.967
 fft3d_ps                          2521 13.1   12.446   13.543   24.036   24.453
 ot_mini                            125  9.0    0.001    0.002   22.586   22.812
 multiply_cannon_loop              2724 13.1    0.166    0.177   20.021   22.025
 xc_pw_derive                       756 12.0    0.006    0.006   17.935   18.152
 qs_ot_get_p                        128  9.0    0.001    0.002   17.711   17.846
 multiply_cannon_multrec          21792 14.1   15.162   16.914   15.179   16.930
 density_rs2pw                      126  8.0    0.006    0.007   13.171   15.456
 qs_ot_get_derivative               125 10.0    0.001    0.002   14.969   15.167
 xc_rho_set_and_dset_create         126 11.0    0.474    0.503   14.047   14.891
 qs_ot_p2m_diag                     120 10.0    0.441    0.503   14.668   14.760
 cp_dbcsr_syevd                     120 11.0    0.011    0.012   13.042   13.045
 cp_fm_diag_elpa                    120 12.0    0.001    0.001   12.688   12.706
 cp_fm_diag_elpa_base               120 13.0   12.566   12.571   12.657   12.658
 xc_pw_divergence                   126 11.0    0.003    0.003   11.985   12.142
 qs_ot_get_derivative_diag          118 11.0    0.004    0.004   10.357   10.546
 transfer_rs2pw                     631  9.0    0.009    0.011    7.437    9.690
 mp_waitany                       19732 12.5    7.044    9.514    7.044    9.514
 mp_alltoall_z22v                  2521 15.1    8.555    9.420    8.555    9.420
 potential_pw2rs                    126 11.0    0.030    0.031    8.725    8.733
 make_m2s                          5448 12.1    0.089    0.094    7.931    8.681
 transfer_rs2pw_300                 127 10.0    0.863    0.975    5.743    7.952
 ot_diis_step                       125 10.0    0.007    0.008    7.513    7.513
 mp_waitall_1                    188330 15.2    5.260    7.177    5.260    7.177
 x_to_yz                           1260 14.5    1.844    2.215    6.339    6.939
 apply_preconditioner_dbcsr         128 11.0    0.000    0.000    5.999    6.243
 apply_single                       128 12.0    0.000    0.001    5.999    6.243
 make_images                       5448 13.1    0.620    0.785    5.262    5.795
 build_core_hamiltonian_matrix_       1  3.0    0.000    0.000    4.603    5.713
 yz_to_x                           1009 13.9    1.123    1.210    5.177    5.547
 transfer_pw2rs                     631 12.0    0.006    0.007    5.409    5.414
 init_scf_loop                        3  5.0    0.000    0.000    5.300    5.302
 xc_functional_eval                 126 12.0    0.002    0.003    4.420    5.118
 pbe_lda_eval                       126 13.0    4.418    5.116    4.418    5.116
 mp_sum_d                          7365 11.6    2.984    4.992    2.984    4.992
 build_core_ppnl_forces               1  4.0    3.821    4.898    3.821    4.898
 multiply_cannon_metrocomm3       21792 14.1    0.057    0.065    2.214    4.584
 calc_dipsurf_potential             126  9.0    0.610    0.691    4.278    4.316
 mp_alltoall_d11v                  1900 13.5    3.022    4.237    3.022    4.237
 mp_sum_l                         13512 11.9    2.611    4.183    2.611    4.183
 -------------------------------------------------------------------------------

 The number of warnings for this run is : 1
 
 -------------------------------------------------------------------------------
  **** **** ******  **  PROGRAM ENDED AT                 2026-08-31 15:55:37.669
 ***** ** ***  *** **   PROGRAM RAN ON                                 nid003394
 **    ****   ******    PROGRAM RAN BY                                    agne_r
 ***** **    ** ** **   PROGRAM PROCESS ID                                259865
  **** **  *******  **  PROGRAM STOPPED IN /mnt/lustre/a2fs-work3/work/e89/e89/a
                                           gne_r/Crystalline_HfO2_Interfaces/Cla
                                           ude/HfO2_STO_interfaces/V4_lattice_ma
                                           tches/updated/V4_lattice_matches/STO_
                                           HfO2_m111_pbesol_matches/configs/m02_
                                           A0122_eps6p4
