Sr24 Hf60 Ti24 O192
1.0
  11.0350538307284367    0.0000000000000000    0.0000000000000007
   5.5175269153642184   11.0350538307284367    0.0000000000000008
   0.0000000000000000    0.0000000000000000   46.9104457696443617
Sr Hf Ti O
24 60 24 192
direct
   0.8750000000000000    0.7500000000000000    0.2078899168072534 Sr
   0.3750000000000001    0.7500000000000000    0.2078899168072534 Sr
   0.7500000000000001    0.5000000000000000    0.2078899168072534 Sr
   0.2500000000000000    0.5000000000000000    0.2078899168072534 Sr
   0.6250000000000000    0.2500000000000000    0.2078899168072534 Sr
   0.1250000000000001    0.2500000000000001    0.2078899168072534 Sr
   0.5000000000000001    0.0000000000000000    0.2078899168072534 Sr
   0.0000000000000001   -0.0000000000000000    0.2078899168072534 Sr
   0.8750000000000000    0.7500000000000000    0.2910586148066651 Sr
   0.3750000000000001    0.7500000000000000    0.2910586148066651 Sr
   0.7500000000000001    0.5000000000000000    0.2910586148066651 Sr
   0.2500000000000001    0.5000000000000001    0.2910586148066651 Sr
   0.6250000000000000    0.2500000000000002    0.2910586148066651 Sr
   0.1250000000000001    0.2500000000000001    0.2910586148066651 Sr
   0.5000000000000001    0.0000000000000000    0.2910586148066651 Sr
   0.0000000000000001    0.0000000000000000    0.2910586148066651 Sr
   0.8750000000000001    0.7500000000000000    0.3742273128060768 Sr
   0.3750000000000001    0.7500000000000002    0.3742273128060768 Sr
   0.7500000000000002    0.5000000000000002    0.3742273128060768 Sr
   0.2500000000000001    0.5000000000000001    0.3742273128060768 Sr
   0.6250000000000001    0.2500000000000001    0.3742273128060768 Sr
   0.1250000000000001    0.2500000000000000    0.3742273128060768 Sr
   0.5000000000000001    0.0000000000000000    0.3742273128060768 Sr
   0.0000000000000001   -0.0000000000000000    0.3742273128060768 Sr
   1.1315917624046135    0.8472642915079701    0.7536882223038621 Hf
   1.4649250957379469    0.1805976248413035    0.7536882223038621 Hf
   0.7982584290712796    0.5139309581746370    0.7536882223038621 Hf
   1.2522618631905915    0.0703363007540216    0.7571221169457738 Hf
   1.5855951965239248    0.4036696340873549    0.7571221169457740 Hf
   0.9189285298572583    0.7370029674206884    0.7571221169457738 Hf
   0.7790204076070462    0.0442427314353512    0.7626600302103681 Hf
   1.1123537409403796    0.3775760647686845    0.7626600302103681 Hf
   1.4456870742737129    0.7109093981020177    0.7626600302103681 Hf
   1.6048332179881588    0.8733578608266405    0.7481503090392678 Hf
   0.9381665513214917    0.2066911941599740    0.7481503090392680 Hf
   1.2714998846548253    0.5400245274933073    0.7481503090392678 Hf
   1.4775551688034150    0.8266644395734680    0.6873158960892902 Hf
   1.8108885021367480    0.1599977729068014    0.6873158960892904 Hf
   1.1442218354700815    0.4933311062401349    0.6873158960892902 Hf
   1.5982252695893930    0.0497364488195195    0.6907497907312019 Hf
   1.9315586029227263    0.3830697821528528    0.6907497907312019 Hf
   1.2648919362560596    0.7164031154861864    0.6907497907312019 Hf
   1.1249838140058477    0.0236428795008491    0.6962877039957962 Hf
   1.4583171473391812    0.3569762128341824    0.6962877039957962 Hf
   1.7916504806725140    0.6903095461675157    0.6962877039957962 Hf
   1.9507966243869603    0.8527580088921384    0.6817779828246959 Hf
   1.2841299577202936    0.1860913422254720    0.6817779828246959 Hf
   1.6174632910536269    0.5194246755588052    0.6817779828246959 Hf
   1.8235185752022165    0.8060645876389659    0.6209435698747183 Hf
   2.1568519085355495    0.1393979209722993    0.6209435698747183 Hf
   1.4901852418688830    0.4727312543056328    0.6209435698747183 Hf
   1.9441886759881943    0.0291365968850175    0.6243774645166300 Hf
   2.2775220093215278    0.3624699302183508    0.6243774645166300 Hf
   1.6108553426548611    0.6958032635516842    0.6243774645166300 Hf
   1.4709472204046492    0.0030430275663471    0.6299153777812243 Hf
   1.8042805537379831    0.3363763608996805    0.6299153777812243 Hf
   2.1376138870713155    0.6697096942330136    0.6299153777812243 Hf
   2.2967600307857619    0.8321581569576364    0.6154056566101240 Hf
   1.6300933641190951    0.1654914902909699    0.6154056566101240 Hf
   1.9634266974524284    0.4988248236243032    0.6154056566101240 Hf
   2.1694819816010180    0.7854647357044638    0.5545712436601464 Hf
   2.5028153149343511    0.1187980690377972    0.5545712436601464 Hf
   1.8361486482676845    0.4521314023711308    0.5545712436601464 Hf
   2.2901520823869963    0.0085367449505154    0.5580051383020581 Hf
   2.6234854157203293    0.3418700782838487    0.5580051383020581 Hf
   1.9568187490536626    0.6752034116171821    0.5580051383020581 Hf
   1.8169106268034503   -0.0175568243681550    0.5635430515666524 Hf
   2.1502439601367835    0.3157765089651783    0.5635430515666524 Hf
   2.4835772934701166    0.6491098422985115    0.5635430515666525 Hf
   2.6427234371845629    0.8115583050231343    0.5490333303955521 Hf
   1.9760567705178957    0.1448916383564679    0.5490333303955521 Hf
   2.3093901038512303    0.4782249716898011    0.5490333303955521 Hf
   2.5154453879998191    0.7648648837699619    0.4881989174455745 Hf
   2.8487787213331521    0.0981982171032952    0.4881989174455746 Hf
   2.1821120546664856    0.4315315504366287    0.4881989174455745 Hf
   2.6361154887857974   -0.0120631069839866    0.4916328120874862 Hf
   2.9694488221191313    0.3212702263493467    0.4916328120874862 Hf
   2.3027821554524648    0.6546035596826801    0.4916328120874862 Hf
   2.1628740332022520   -0.0381566763026570    0.4971707253520805 Hf
   2.4962073665355851    0.2951766570306763    0.4971707253520805 Hf
   2.8295406998689194    0.6285099903640096    0.4971707253520805 Hf
   2.9886868435833640    0.7909584530886322    0.4826610041809803 Hf
   2.3220201769166979    0.1242917864219658    0.4826610041809802 Hf
   2.6553535102500310    0.4576251197552991    0.4826610041809803 Hf
   0.0000000000000000    0.5000000000000001    0.2494742658069592 Ti
   0.5000000000000000    0.5000000000000001    0.2494742658069592 Ti
   0.8750000000000002    0.2500000000000002    0.2494742658069592 Ti
   0.3750000000000001    0.2500000000000001    0.2494742658069592 Ti
   0.7500000000000002    0.0000000000000001    0.2494742658069592 Ti
   0.2500000000000001    0.0000000000000000    0.2494742658069592 Ti
   0.6250000000000000    0.7500000000000001    0.2494742658069592 Ti
   0.1250000000000001    0.7500000000000001    0.2494742658069592 Ti
   0.0000000000000001    0.5000000000000001    0.3326429638063709 Ti
   0.5000000000000001    0.5000000000000001    0.3326429638063709 Ti
   0.8750000000000002    0.2500000000000002    0.3326429638063709 Ti
   0.3750000000000001    0.2500000000000001    0.3326429638063709 Ti
   0.7500000000000002    0.0000000000000001    0.3326429638063709 Ti
   0.2500000000000001    0.0000000000000000    0.3326429638063709 Ti
   0.6250000000000001    0.7500000000000000    0.3326429638063709 Ti
   0.1250000000000001    0.7500000000000001    0.3326429638063709 Ti
   0.0000000000000001    0.5000000000000001    0.4158116618057827 Ti
   0.5000000000000001    0.5000000000000001    0.4158116618057827 Ti
   0.8750000000000002    0.2500000000000002    0.4158116618057827 Ti
   0.3750000000000002    0.2500000000000000    0.4158116618057827 Ti
   0.7500000000000002    0.0000000000000001    0.4158116618057827 Ti
   0.2500000000000002    0.0000000000000001    0.4158116618057827 Ti
   0.6250000000000001    0.7500000000000000    0.4158116618057827 Ti
   0.1250000000000001    0.7500000000000001    0.4158116618057827 Ti
   0.8125000000000001    0.6250000000000001    0.2494742658069592 O
   0.3125000000000001    0.6250000000000002    0.2494742658069592 O
   0.6875000000000001    0.3750000000000002    0.2494742658069592 O
   0.1875000000000001    0.3750000000000001    0.2494742658069592 O
   0.5625000000000001    0.1250000000000002    0.2494742658069592 O
   0.0625000000000001    0.1250000000000000    0.2494742658069592 O
   0.4375000000000001    0.8750000000000000    0.2494742658069592 O
   0.9375000000000001    0.8750000000000002    0.2494742658069592 O
   0.0625000000000001    0.6250000000000001    0.2494742658069592 O
   0.5625000000000001    0.6250000000000000    0.2494742658069592 O
   0.9375000000000002    0.3750000000000001    0.2494742658069592 O
   0.4375000000000001    0.3750000000000002    0.2494742658069592 O
   0.8125000000000001    0.1250000000000001    0.2494742658069592 O
   0.3125000000000001    0.1250000000000001    0.2494742658069592 O
   0.6875000000000000    0.8750000000000001    0.2494742658069592 O
   0.1875000000000001    0.8750000000000000    0.2494742658069592 O
   0.0000000000000003    0.5000000000000001    0.2078899168072534 O
   0.5000000000000000    0.5000000000000001    0.2078899168072534 O
   0.8750000000000002    0.2500000000000002    0.2078899168072534 O
   0.3750000000000001    0.2500000000000001    0.2078899168072534 O
   0.7500000000000001    0.0000000000000001    0.2078899168072534 O
   0.2500000000000001    0.0000000000000000    0.2078899168072534 O
   0.6250000000000000    0.7500000000000001    0.2078899168072534 O
   0.1250000000000001    0.7500000000000001    0.2078899168072534 O
   0.8125000000000001    0.6250000000000001    0.3326429638063709 O
   0.3125000000000001    0.6250000000000001    0.3326429638063709 O
   0.6875000000000002    0.3750000000000002    0.3326429638063709 O
   0.1875000000000001    0.3750000000000001    0.3326429638063709 O
   0.5625000000000001    0.1250000000000001    0.3326429638063709 O
   0.0625000000000001    0.1250000000000001    0.3326429638063709 O
   0.4375000000000001    0.8750000000000000    0.3326429638063709 O
   0.9375000000000002    0.8750000000000002    0.3326429638063709 O
   0.0625000000000003    0.6250000000000001    0.3326429638063709 O
   0.5625000000000001    0.6250000000000002    0.3326429638063709 O
   0.9375000000000002    0.3750000000000002    0.3326429638063709 O
   0.4375000000000002    0.3750000000000002    0.3326429638063709 O
   0.8125000000000001    0.1250000000000001    0.3326429638063709 O
   0.3125000000000002    0.1250000000000001    0.3326429638063709 O
   0.6875000000000000    0.8750000000000000    0.3326429638063709 O
   0.1875000000000001    0.8750000000000001    0.3326429638063709 O
   0.0000000000000001    0.5000000000000001    0.2910586148066651 O
   0.5000000000000001    0.5000000000000001    0.2910586148066651 O
   0.8750000000000002    0.2500000000000002    0.2910586148066651 O
   0.3750000000000001    0.2500000000000001    0.2910586148066651 O
   0.7500000000000002    0.0000000000000001    0.2910586148066651 O
   0.2500000000000002    0.0000000000000000    0.2910586148066651 O
   0.6250000000000000    0.7500000000000000    0.2910586148066651 O
   0.1250000000000001    0.7500000000000001    0.2910586148066651 O
   0.8125000000000002    0.6250000000000001    0.4158116618057827 O
   0.3125000000000002    0.6250000000000002    0.4158116618057827 O
   0.6875000000000002    0.3750000000000002    0.4158116618057827 O
   0.1875000000000001    0.3750000000000000    0.4158116618057827 O
   0.5625000000000001    0.1250000000000001    0.4158116618057827 O
   0.0625000000000001    0.1250000000000000    0.4158116618057827 O
   0.4375000000000001    0.8750000000000000    0.4158116618057827 O
   0.9375000000000002    0.8750000000000002    0.4158116618057827 O
   0.0625000000000001    0.6250000000000002    0.4158116618057827 O
   0.5625000000000001    0.6250000000000002    0.4158116618057827 O
   0.9375000000000002    0.3750000000000002    0.4158116618057827 O
   0.4375000000000002    0.3750000000000001    0.4158116618057827 O
   0.8125000000000001    0.1250000000000001    0.4158116618057827 O
   0.3125000000000001    0.1250000000000000    0.4158116618057827 O
   0.6875000000000001    0.8750000000000002    0.4158116618057827 O
   0.1875000000000001    0.8750000000000001    0.4158116618057827 O
   0.0000000000000001    0.5000000000000001    0.3742273128060768 O
   0.5000000000000001    0.5000000000000001    0.3742273128060768 O
   0.8750000000000002    0.2500000000000002    0.3742273128060768 O
   0.3750000000000002    0.2500000000000000    0.3742273128060768 O
   0.7500000000000002    0.0000000000000001    0.3742273128060768 O
   0.2500000000000001    0.0000000000000000    0.3742273128060768 O
   0.6250000000000001    0.7500000000000000    0.3742273128060768 O
   0.1250000000000001    0.7500000000000001    0.3742273128060768 O
   1.4372745290517157    0.0170126638237695    0.7505367383934389 O
   0.7706078623850493    0.3503459971571030    0.7505367383934387 O
   1.1039411957183822    0.6836793304904362    0.7505367383934389 O
   0.9465790965434890    0.9005879284382221    0.7602736008561972 O
   1.2799124298768223    0.2339212617715556    0.7602736008561972 O
   1.6132457632101558    0.5672545951048890    0.7602736008561972 O
   0.8826964246094661    0.1336915463705623    0.7815456416278870 O
   1.2160297579427994    0.4670248797038956    0.7815456416278870 O
   1.5493630912761329    0.8003582130372288    0.7815456416278870 O
   1.5011572009857388    0.7839090458914294    0.7292646976217492 O
   0.8344905343190721    0.1172423792247629    0.7292646976217489 O
   1.1678238676524058    0.4505757125580962    0.7292646976217489 O
   1.0849484751398091    0.2107148231753879    0.7736143432952700 O
   1.4182818084731423    0.5440481565087212    0.7736143432952700 O
   0.7516151418064756    0.8773814898420547    0.7736143432952700 O
   1.2989051504553959    0.7068857690866036    0.7371959959543659 O
   1.6322384837887292    0.0402191024199371    0.7371959959543659 O
   0.9655718171220625    0.3735524357532705    0.7371959959543659 O
   1.2872493504141373    0.8890604022123881    0.7692768416491422 O
   0.6205826837474706    0.2223937355457218    0.7692768416491425 O
   0.9539160170808041    0.5557270688790550    0.7692768416491425 O
   1.0966042751810676    0.0285401900496035    0.7415334976004937 O
   1.4299376085144009    0.3618735233829368    0.7415334976004937 O
   1.7632709418477339    0.6952068567162699    0.7415334976004939 O
   1.7832379354505170   -0.0035871881107326    0.6841644121788669 O
   1.1165712687838505    0.3297461452226009    0.6841644121788668 O
   1.4499046021171835    0.6630794785559343    0.6841644121788670 O
   1.2925425029422903    0.8799880765037200    0.6939012746416253 O
   1.6258758362756240    0.2133214098370534    0.6939012746416253 O
   1.9592091696089573    0.5466547431703868    0.6939012746416253 O
   1.2286598310082675    0.1130916944360603    0.7151733154133151 O
   1.5619931643416010    0.4464250277693935    0.7151733154133151 O
   1.8953264976749347    0.7797583611027267    0.7151733154133151 O
   1.8471206073845403    0.7633091939569273    0.6628923714071772 O
   1.1804539407178734    0.0966425272902609    0.6628923714071771 O
   1.5137872740512066    0.4299758606235942    0.6628923714071771 O
   1.4309118815386104    0.1901149712408859    0.7072420170806981 O
   1.7642452148719436    0.5234483045742191    0.7072420170806981 O
   1.0975785482052773    0.8567816379075527    0.7072420170806981 O
   1.6448685568541976    0.6862859171521016    0.6708236697397940 O
   1.9782018901875307    0.0196192504854349    0.6708236697397941 O
   1.3115352235208642    0.3529525838187685    0.6708236697397940 O
   1.6332127568129389    0.8684605502778860    0.7029045154345703 O
   0.9665460901462720    0.2017938836112197    0.7029045154345703 O
   1.2998794234796054    0.5351272169445530    0.7029045154345704 O
   1.4425676815798689    0.0079403381151014    0.6751611713859218 O
   1.7759010149132020    0.3412736714484347    0.6751611713859218 O
   2.1092343482465359    0.6746070047817679    0.6751611713859218 O
   2.1292013418493188   -0.0241870400452346    0.6177920859642950 O
   1.4625346751826516    0.3091462932880988    0.6177920859642950 O
   1.7958680085159855    0.6424796266214323    0.6177920859642949 O
   1.6385059093410923    0.8593882245692180    0.6275289484270533 O
   1.9718392426744256    0.1927215579025514    0.6275289484270533 O
   2.3051725760077586    0.5260548912358847    0.6275289484270534 O
   1.5746232374070692    0.0924918425015582    0.6488009891987432 O
   1.9079565707404027    0.4258251758348915    0.6488009891987431 O
   2.2412899040737355    0.7591585091682247    0.6488009891987432 O
   2.1930840137833418    0.7427093420224253    0.5965200451926053 O
   1.5264173471166746    0.0760426753557588    0.5965200451926052 O
   1.8597506804500081    0.4093760086890921    0.5965200451926054 O
   1.7768752879374119    0.1695151193063838    0.6408696908661262 O
   2.1102086212707456    0.5028484526397171    0.6408696908661262 O
   1.4435419546040786    0.8361817859730506    0.6408696908661262 O
   1.9908319632529987    0.6656860652175994    0.6044513435252221 O
   2.3241652965863318   -0.0009806014490671    0.6044513435252221 O
   1.6574986299196655    0.3323527318842664    0.6044513435252222 O
   1.9791761632117399    0.8478606983433840    0.6365321892199984 O
   1.3125094965450734    0.1811940316767176    0.6365321892199984 O
   1.6458428298784067    0.5145273650100509    0.6365321892199985 O
   1.7885310879786704   -0.0126595138194006    0.6087888451713499 O
   2.1218644213120039    0.3206738195139326    0.6087888451713499 O
   2.4551977546453374    0.6540071528472658    0.6087888451713499 O
   2.4751647482481198   -0.0447868919797367    0.5514197597497232 O
   1.8084980815814533    0.2885464413535968    0.5514197597497232 O
   2.1418314149147863    0.6218797746869300    0.5514197597497232 O
   1.9844693157398934    0.8387883726347158    0.5611566222124815 O
   2.3178026490732271    0.1721217059680493    0.5611566222124814 O
   2.6511359824065601    0.5054550393013826    0.5611566222124815 O
   1.9205866438058707    0.0718919905670561    0.5824286629841712 O
   2.2539199771392036    0.4052253239003894    0.5824286629841713 O
   2.5872533104725370    0.7385586572337227    0.5824286629841713 O
   2.5390474201821429    0.7221094900879232    0.5301477189780335 O
   1.8723807535154762    0.0554428234212567    0.5301477189780334 O
   2.2057140868488099    0.3887761567545900    0.5301477189780334 O
   2.1228386943362132    0.1489152673718818    0.5744973646515543 O
   2.4561720276695471    0.4822486007052151    0.5744973646515542 O
   1.7895053610028797    0.8155819340385485    0.5744973646515543 O
   2.3367953696518002    0.6450862132830975    0.5380790173106502 O
   2.6701287029851333   -0.0215804533835691    0.5380790173106502 O
   2.0034620363184672    0.3117528799497643    0.5380790173106502 O
   2.3251395696105415    0.8272608464088820    0.5701598630054265 O
   1.6584729029438749    0.1605941797422156    0.5701598630054265 O
   1.9918062362772084    0.4939275130755488    0.5701598630054265 O
   2.1344944943774720   -0.0332593657539027    0.5424165189567780 O
   2.4678278277108054    0.3000739675794306    0.5424165189567780 O
   2.8011611610441389    0.6334073009127639    0.5424165189567780 O
   2.8211281546469213   -0.0653867439142388    0.4850474335351512 O
   2.1544614879802544    0.2679465894190947    0.4850474335351512 O
   2.4877948213135879    0.6012799227524280    0.4850474335351512 O
   2.3304327221386947    0.8181885207002138    0.4947842959979095 O
   2.6637660554720282    0.1515218540335473    0.4947842959979095 O
   2.9970993888053621    0.4848551873668807    0.4947842959979095 O
   2.2665500502046720    0.0512921386325541    0.5160563367695992 O
   2.5998833835380051    0.3846254719658874    0.5160563367695993 O
   2.9332167168713381    0.7179588052992206    0.5160563367695994 O
   2.8850108265809444    0.7015096381534212    0.4637753927634615 O
   2.2183441599142775    0.0348429714867547    0.4637753927634615 O
   2.5516774932476114    0.3681763048200880    0.4637753927634614 O
   2.4688021007350147    0.1283154154373797    0.5081250384369824 O
   2.8021354340683478    0.4616487487707131    0.5081250384369824 O
   2.1354687674016817    0.7949820821040464    0.5081250384369824 O
   2.6827587760506018    0.6244863613485955    0.4717066910960784 O
   3.0160921093839352   -0.0421803053180712    0.4717066910960784 O
   2.3494254427172683    0.2911530280152623    0.4717066910960784 O
   2.6711029760093430    0.8066609944743798    0.5037875367908546 O
   2.0044363093426760    0.1399943278077133    0.5037875367908546 O
   2.3377696426760095    0.4733276611410467    0.5037875367908546 O
   2.4804579007762735   -0.0538592176884048    0.4760441927422061 O
   2.8137912341096065    0.2794741156449285    0.4760441927422061 O
   3.1471245674429400    0.6128074489782617    0.4760441927422061 O
