Sr Hf Ti O 
 1.0000000000000000
    17.4377525157343598    0.0000000000000000    0.0000000000000011
     3.4875505031468674   19.1815277673077951    0.0000000000000012
     0.0000000000000000    0.0000000000000000   46.9070585703796752
 Sr  Hf  Ti  O  
  66 160  66 518
Selective dynamics
Cartesian
 13.9502242765747102 15.6939684442541498 11.9694322473332075   F   F   F
 12.2064490250012767 19.1815189474010204 11.9694322473332075   F   F   F
 12.2064490250012820 10.4626426895338405 11.9694322473332040   F   F   F
 10.4626737734278397 13.9501931926807128 11.9694322473332040   F   F   F
  8.7188985218544026 17.4377436958275851 11.9694322473332075   F   F   F
 10.4626737734278361  5.2313169348135293 11.9694322473332040   F   F   F
  8.7188985218544008  8.7188674379604034 11.9694322473332040   F   F   F
  6.9751232702809665 12.2064179411072740 11.9694322473332040   F   F   F
  5.2313480187075259 15.6939684442541427 11.9694322473332040   F   F   F
  3.4875727671340955 19.1815189474010239 11.9694322473332040   F   F   F
  6.9751232702809656  3.4875416832400941 11.9694322473332058   F   F   F
  5.2313480187075294  6.9750921863869664 11.9694322473332058   F   F   F
  3.4875727671340941 10.4626426895338387 11.9694322473332058   F   F   F
 19.1815500312950142 13.9501931926807110 11.9694322473332075   F   F   F
 17.4377747797215790 17.4377436958275851 11.9694322473332075   F   F   F
  3.4875727671340964  1.7437664316666588 11.9694322473332058   F   F   F
  1.7437975155606598  5.2313169348135320 11.9694322473332058   F   F   F
 17.4377747797215861  8.7188674379604034 11.9694322473332075   F   F   F
 15.6939995281481437 12.2064179411072740 11.9694322473332075   F   F   F
 15.6939995281481437  3.4875416832400941 11.9694322473332040   F   F   F
 13.9502242765747138  6.9750921863869673 11.9694322473332040   F   F   F
 12.2064490250012749  1.7437664316666588 11.9694322473332058   F   F   F
 13.9502242765747102 15.6939684442541498 15.8686322473332027   T   T   T
 12.2064490250012767 19.1815189474010204 15.8686322473332027   T   T   T
 12.2064490250012820 10.4626426895338405 15.8686322473332027   T   T   T
 10.4626737734278397 13.9501931926807128 15.8686322473332027   T   T   T
  8.7188985218544026 17.4377436958275851 15.8686322473332027   T   T   T
 10.4626737734278361  5.2313169348135293 15.8686322473331991   T   T   T
  8.7188985218544008  8.7188674379604034 15.8686322473331991   T   T   T
  6.9751232702809665 12.2064179411072740 15.8686322473331991   T   T   T
  5.2313480187075259 15.6939684442541427 15.8686322473332027   T   T   T
  3.4875727671340955 19.1815189474010239 15.8686322473332027   T   T   T
  6.9751232702809656  3.4875416832400941 15.8686322473332044   T   T   T
  5.2313480187075294  6.9750921863869664 15.8686322473332044   T   T   T
  3.4875727671340941 10.4626426895338387 15.8686322473332044   T   T   T
 19.1815500312950142 13.9501931926807110 15.8686322473332027   T   T   T
 17.4377747797215790 17.4377436958275851 15.8686322473332027   T   T   T
  3.4875727671340964  1.7437664316666588 15.8686322473332044   T   T   T
  1.7437975155606598  5.2313169348135320 15.8686322473332044   T   T   T
 17.4377747797215861  8.7188674379604034 15.8686322473332027   T   T   T
 15.6939995281481437 12.2064179411072740 15.8686322473332027   T   T   T
 15.6939995281481437  3.4875416832400941 15.8686322473332027   T   T   T
 13.9502242765747138  6.9750921863869673 15.8686322473332027   T   T   T
 12.2064490250012749  1.7437664316666588 15.8686322473332044   T   T   T
 13.9502242765747102 15.6939684442541498 19.7678322473331995   T   T   T
 12.2064490250012767 19.1815189474010204 19.7678322473331995   T   T   T
 12.2064490250012820 10.4626426895338405 19.7678322473332031   T   T   T
 10.4626737734278397 13.9501931926807128 19.7678322473332031   T   T   T
  8.7188985218544026 17.4377436958275851 19.7678322473331995   T   T   T
 10.4626737734278361  5.2313169348135293 19.7678322473332031   T   T   T
  8.7188985218544008  8.7188674379604034 19.7678322473332031   T   T   T
  6.9751232702809665 12.2064179411072740 19.7678322473332031   T   T   T
  5.2313480187075259 15.6939684442541427 19.7678322473332031   T   T   T
  3.4875727671340955 19.1815189474010239 19.7678322473332031   T   T   T
  6.9751232702809656  3.4875416832400941 19.7678322473332031   T   T   T
  5.2313480187075294  6.9750921863869664 19.7678322473332031   T   T   T
  3.4875727671340941 10.4626426895338387 19.7678322473332031   T   T   T
 19.1815500312950142 13.9501931926807110 19.7678322473331995   T   T   T
 17.4377747797215790 17.4377436958275851 19.7678322473331995   T   T   T
  3.4875727671340964  1.7437664316666588 19.7678322473332031   T   T   T
  1.7437975155606598  5.2313169348135320 19.7678322473332031   T   T   T
 17.4377747797215861  8.7188674379604034 19.7678322473331995   T   T   T
 15.6939995281481437 12.2064179411072740 19.7678322473331995   T   T   T
 15.6939995281481437  3.4875416832400941 19.7678322473332031   T   T   T
 13.9502242765747138  6.9750921863869673 19.7678322473332031   T   T   T
 12.2064490250012749  1.7437664316666588 19.7678322473332031   T   T   T
 11.7665070672620899  4.1896676341875727 35.6188115422182037   T   T   T
 16.9978328219823958  8.9850495760145215 35.6188115422181966   T   T   T
  5.6632936867550638  6.5873586051010440 35.6188115422182037   T   T   T
 16.1259451961956799 16.1781224887549442 35.6188115422181966   T   T   T
  4.7914060609683453 13.7804315178414694 35.6188115422182108   T   T   T
 10.8946194414753741 11.3827405469279963 35.6188115422182108   T   T   T
  0.4319679320347619  1.7919766632740934 35.6188115422182037   T   T   T
 10.0227318156886493 18.5758134596684172 35.6188115422181966   T   T   T
 14.7057623344269217  2.3491245525350566 35.7846300804609783   T   T   T
  2.4993355734128730  7.1445064943620054 35.7846300804609783   T   T   T
  8.6025489539198983  4.7468155234485314 35.7846300804609783   T   T   T
 19.0652004633605081 14.3375794071024298 35.7846300804609783   T   T   T
  7.7306613281331797 11.9398884361889532 35.7846300804609783   T   T   T
 13.8338747086402059  9.5421974652754802 35.7846300804609996   T   T   T
  6.8587737023464630 19.1329613489293742 35.7846300804609996   T   T   T
 12.9619870828534829 16.7352703780159011 35.7846300804609783   T   T   T
  9.1549004827554530  1.4528457063524896 36.0351320213917745   T   T   T
 14.3862262374757552  6.2482276481794425 36.0351320213917745   T   T   T
  3.0516871022484278  3.8505366772659659 36.0351320213917745   T   T   T
 13.5143386116890394 13.4413005609198670 36.0351320213917745   T   T   T
  2.1797994764617123 11.0436095900063904 36.0351320213917745   T   T   T
  8.2830128569687353  8.6459186190929156 36.0351320213917745   T   T   T
 18.7456643664093470 18.2366825027468131 36.0351320213917816   T   T   T
  7.4111252311820168 15.8389915318333365 36.0351320213917745   T   T   T
 17.3173854314143654  5.0859416334069909 35.3683104364206358   T   T   T
  5.1109586704003069  9.8813235752339388 35.3683104364206358   T   T   T
 11.2141720509073366  7.4836326043204648 35.3683104364206358   T   T   T
  4.2390710446135902 17.0743964879743615 35.3683104364206358   T   T   T
 10.3422844251206172 14.6767055170608867 35.3683104364206358   T   T   T
 16.4454978056276460 12.2790145461474118 35.3683104364206358   T   T   T
  5.9828462961870379  2.6882506624935170 35.3683104364206287   T   T   T
 12.0860596766940596  0.2905596915800430 35.3683104364206358   T   T   T
 15.5507705150664410  5.2248798173394668 32.5041288794081709   T   T   T
  3.3443437540523915 10.0202617591664165 32.5041288794081709   T   T   T
  9.4475571345594211  7.6225707882529381 32.5041288794081709   T   T   T
 19.9102086440000363 17.2133346719068392 32.5041288794081638   T   T   T
  8.5756695087727053 14.8156437009933644 32.5041288794081709   T   T   T
 14.6788828892797305 12.4179527300798913 32.5041288794081709   T   T   T
  4.2162313798391153  2.8271888464259942 32.5041288794081709   T   T   T
 10.3194447603461388  0.4294978755125206 32.5041288794081709   T   T   T
  1.0522732664969190  3.3843367356869503 32.6699474176509526   T   T   T
  6.2835990212172259  8.1797186775139004 32.6699474176509526   T   T   T
 12.3868124017242565  5.7820277066004273 32.6699474176509526   T   T   T
  5.4117113954305047 15.3727915902543213 32.6699474176509455   T   T   T
 11.5149247759375264 12.9751006193408447 32.6699474176509455   T   T   T
 17.6181381564445587 10.5774096484273734 32.6699474176509455   T   T   T
  7.1554866470039480  0.9866457647734742 32.6699474176509526   T   T   T
 16.7462505306578286 17.7704825611677961 32.6699474176509455   T   T   T
 12.9391639305598112  2.4880578895043906 32.9204493585817417   T   T   T
 18.1704896852801099  7.2834398313313375 32.9204493585817417   T   T   T
  6.8359505500527833  4.8857488604178601 32.9204493585817417   T   T   T
 17.2986020594933976 14.4765127440717620 32.9204493585817417   T   T   T
  5.9640629242660657 12.0788217731582854 32.9204493585817417   T   T   T
 12.0672763047730935  9.6811308022448088 32.9204493585817417   T   T   T
  1.6046247953324786  0.0903669185909162 32.9204493585817346   T   T   T
 11.1953886789863652 16.8742037149852315 32.9204493585817417   T   T   T
  3.6638963634843638  6.1211538165588850 32.2536277736105959   T   T   T
  8.8952221182046678 10.9165357583858338 32.2536277736105959   T   T   T
 14.9984354987116948  8.5188447874723625 32.2536277736105959   T   T   T
  8.0233344924179448 18.1096086711262565 32.2536277736105959   T   T   T
 14.1265478729249736 15.7119177002127834 32.2536277736105959   T   T   T
  2.7920087376976395 13.3142267292993068 32.2536277736105959   T   T   T
  9.7671097439913854  3.7234628456454115 32.2536277736105959   T   T   T
 15.8703231244984106  1.3257718747319356 32.2536277736105959   T   T   T
  1.8972814471364494  6.2600920004913627 29.3894462165981203   T   T   T
  7.1286072018567435 11.0554739423183115 29.3894462165981167   T   T   T
 13.2318205823637758  8.6577829714048331 29.3894462165981167   T   T   T
  6.2567195760700276 18.2485468550587342 29.3894462165981167   T   T   T
 12.3599329565770635 15.8508558841452558 29.3894462165981167   T   T   T
 18.4631463370840834 13.4531649132317863 29.3894462165981167   T   T   T
  8.0004948276434753  3.8624010295778919 29.3894462165981203   T   T   T
 14.1037082081504934  1.4647100586644131 29.3894462165981167   T   T   T
  4.8365367143012756  4.4195489188388448 29.5552647548409091   T   T   T
 10.0678624690215859  9.2149308606657936 29.5552647548408984   T   T   T
 16.1710758495286093  6.8172398897523214 29.5552647548409091   T   T   T
  9.1959748432348629 16.4080037734062181 29.5552647548408984   T   T   T
 15.2991882237418899 14.0103128024927397 29.5552647548409055   T   T   T
  3.9646490885145549 11.6126218315792684 29.5552647548408984   T   T   T
 10.9397500948083071  2.0218579479253713 29.5552647548408984   T   T   T
 20.5305139784621957 18.8056947443196911 29.5552647548409055   T   T   T
 16.7234273783641711  3.5232700726562833 29.8057666957716911   T   T   T
  4.5170006173501189  8.3186520144832325 29.8057666957716947   T   T   T
 10.6202139978571442  5.9209610435697568 29.8057666957716911   T   T   T
  3.6451129915633960 15.5117249272236588 29.8057666957716911   T   T   T
  9.7483263720704265 13.1140339563101822 29.8057666957716805   T   T   T
 15.8515397525774500 10.7163429853967056 29.8057666957716911   T   T   T
  5.3888882431368392  1.1255791017428087 29.8057666957716947   T   T   T
 14.9796521267907305 17.9094158981371301 29.8057666957716805   T   T   T
  7.4481598112887148  7.1563659997107800 29.1389451108005453   T   T   T
 12.6794855660090278 11.9517479415377288 29.1389451108005453   T   T   T
 18.7826989465160494  9.5540569706242557 29.1389451108005524   T   T   T
 11.8075979402223137 19.1448208542781515 29.1389451108005524   T   T   T
 17.9108113207293265 16.7471298833646749 29.1389451108005524   T   T   T
  6.5762721855019954 14.3494389124512018 29.1389451108005559   T   T   T
 13.5513731917957436  4.7586750287973043 29.1389451108005453   T   T   T
  2.2168340565684135  2.3609840578838321 29.1389451108005453   T   T   T
  5.6815448949408021  7.2953041836432577 26.2747635537880768   T   T   T
 10.9128706496611052 12.0906861254702065 26.2747635537880768   T   T   T
 17.0160840301681304  9.6929951545567299 26.2747635537880733   T   T   T
  6.5534325207275206  0.1022312709028356 26.2747635537880768   T   T   T
 16.1441964043814146 16.8860680672971526 26.2747635537880733   T   T   T
  4.8096572691540809 14.4883770963836831 26.2747635537880768   T   T   T
 11.7847582754478264  4.8976132127297847 26.2747635537880768   T   T   T
 17.8879716559548640  2.4999222418163058 26.2747635537880768   T   T   T
  8.6208001621056365  5.4547611019907407 26.4405820920308550   T   T   T
 13.8521259168259370 10.2501430438176886 26.4405820920308550   T   T   T
  2.5175867815986130  7.8524520729042155 26.4405820920308656   T   T   T
 12.9802382910392247 17.4432159565581131 26.4405820920308550   T   T   T
 19.0834516715462499 15.0455249856446365 26.4405820920308656   T   T   T
  7.7489125363189162 12.6478340147311652 26.4405820920308550   T   T   T
 14.7240135426126635  3.0570701310772637 26.4405820920308656   T   T   T
  3.3894744073853245  0.6593791601637894 26.4405820920308585   T   T   T
  3.0699383104341695  4.5584822558081841 26.6910840329616406   T   T   T
  8.3012640651544771  9.3538641976351293 26.6910840329616477   T   T   T
 14.4044774456615094  6.9561732267216536 26.6910840329616477   T   T   T
  7.4293764393677506 16.5469371103755520 26.6910840329616477   T   T   T
 13.5325898198747794 14.1492461394620772 26.6910840329616477   T   T   T
  2.1980506846474448 11.7515551685486006 26.6910840329616512   T   T   T
  9.1731516909411948  2.1607912848947013 26.6910840329616512   T   T   T
 18.7639155745950852 18.9446280812890215 26.6910840329616477   T   T   T
 11.2324232590930659  8.1915781828626741 26.0242624479905125   T   T   T
 16.4637490138133806 12.9869601246896238 26.0242624479905125   T   T   T
  5.1292098785860460 10.5892691537761490 26.0242624479905125   T   T   T
 12.1043108848797907  0.9985052701222548 26.0242624479905160   T   T   T
  4.2573222527993186 17.7823420665165699 26.0242624479905125   T   T   T
 10.3605356333063412 15.3846510956030933 26.0242624479905125   T   T   T
 17.3356366396000965  5.7938872119491984 26.0242624479905125   T   T   T
  6.0010975043727646  3.3961962410357249 26.0242624479905160   T   T   T
  9.4658083427451594  8.3305163667951536 23.1600808909780298   T   T   T
 14.6971340974654670 13.1258983086221033 23.1600808909780298   T   T   T
  3.3625949622381350 10.7282073377086249 23.1600808909780369   T   T   T
 10.3376959685318806  1.1374434540547322 23.1600808909780334   T   T   T
 19.9284598521857781 17.9212802504490476 23.1600808909780405   T   T   T
  8.5939207169584328 15.5235892795355763 23.1600808909780405   T   T   T
 15.5690217232521899  5.9328253958816770 23.1600808909780369   T   T   T
  4.2344825880248402  3.5351344249682066 23.1600808909780334   T   T   T
 12.4050636099099858  6.4899732851426339 23.3258994292208222   T   T   T
 17.6363893646302969 11.2853552269695854 23.3258994292208257   T   T   T
  6.3018502294029606  8.8876642560561123 23.3258994292208222   T   T   T
 16.7645017388435669 18.4784281397100081 23.3258994292208257   T   T   T
  5.4299626036162376 16.0807371687965350 23.3258994292208151   T   T   T
 11.5331759841232788 13.6830461978830566 23.3258994292208151   T   T   T
  1.0705244746826510  4.0922823142291609 23.3258994292208222   T   T   T
  7.1737378551896809  1.6945913433156905 23.3258994292208186   T   T   T
  6.8542017582385242  5.5936944389600756 23.5764013701515971   T   T   T
 12.0855275129588300 10.3890763807870226 23.5764013701515971   T   T   T
 18.1887408934658517  7.9913854098735460 23.5764013701516149   T   T   T
 11.2136398871721070 17.5821492935274470 23.5764013701516149   T   T   T
 17.3168532676791358 15.1844583226139687 23.5764013701516042   T   T   T
  5.9823141324518048 12.7867673517004921 23.5764013701515971   T   T   T
 12.9574151387455494  3.1960034680466025 23.5764013701516078   T   T   T
  1.6228760035182190  0.7983124971331280 23.5764013701516078   T   T   T
 15.0166867068974312  9.2267903660145709 22.9095797851804690   T   T   T
  2.8102599458833724 14.0221723078415188 22.9095797851804690   T   T   T
  8.9134733263903989 11.6244813369280440 22.9095797851804690   T   T   T
 15.8885743326841542  2.0337174532741473 22.9095797851804690   T   T   T
  8.0415857006036795 18.8175542496684649 22.9095797851804690   T   T   T
 14.1447990811107029 16.4198632787549919 22.9095797851804690   T   T   T
  3.6821475716700998  6.8290993951010952 22.9095797851804654   T   T   T
  9.7853609521771219  4.4314084241876222 22.9095797851804690   T   T   T
 16.5659019039303530 14.8220774903601651 10.0198145193109838   F   F   F
 14.8221266523569160 18.3096279935070392 10.0198145193109838   F   F   F
 14.8221266523569266  9.5907517356398593 10.0198145193109838   F   F   F
 13.0783514007834913 13.0783022387867351 10.0198145193109838   F   F   F
 11.3345761492100525 16.5658527419336075 10.0198145193109838   F   F   F
 13.0783514007834860  4.3594259809195508 10.0198145193109784   F   F   F
 11.3345761492100561  7.8469764840664249 10.0198145193109784   F   F   F
  9.5908008976366190 11.3345269872132963 10.0198145193109784   F   F   F
  7.8470256460631820 14.8220774903601669 10.0198145193109838   F   F   F
  6.1032503944897449 18.3096279935070392 10.0198145193109838   F   F   F
  9.5908008976366208  2.6156507293461146 10.0198145193109820   F   F   F
  7.8470256460631829  6.1032012324929870 10.0198145193109820   F   F   F
  6.1032503944897449  9.5907517356398593 10.0198145193109820   F   F   F
  4.3594751429163070 13.0783022387867316 10.0198145193109802   F   F   F
 20.0534524070772306 16.5658527419336039 10.0198145193109820   F   F   F
  6.1032503944897440  0.8718754777726782 10.0198145193109802   F   F   F
  4.3594751429163088  4.3594259809195499 10.0198145193109802   F   F   F
  2.6156998913428713  7.8469764840664222 10.0198145193109802   F   F   F
 18.3096771555037918 11.3345269872132928 10.0198145193109838   F   F   F
  0.8719246397694370  2.6156507293461142 10.0198145193109802   F   F   F
 16.5659019039303637  6.1032012324929878 10.0198145193109838   F   F   F
 14.8221266523569266  0.8718754777726788 10.0198145193109784   F   F   F
 16.5659019039303530 14.8220774903601651 13.9190145193109842   F   F   F
 14.8221266523569160 18.3096279935070392 13.9190145193109842   F   F   F
 14.8221266523569266  9.5907517356398593 13.9190145193109842   F   F   F
 13.0783514007834913 13.0783022387867351 13.9190145193109842   F   F   F
 11.3345761492100525 16.5658527419336075 13.9190145193109842   F   F   F
 13.0783514007834860  4.3594259809195508 13.9190145193109842   F   F   F
 11.3345761492100561  7.8469764840664249 13.9190145193109842   F   F   F
  9.5908008976366190 11.3345269872132963 13.9190145193109842   F   F   F
  7.8470256460631820 14.8220774903601669 13.9190145193109842   F   F   F
  6.1032503944897449 18.3096279935070392 13.9190145193109842   F   F   F
  9.5908008976366208  2.6156507293461146 13.9190145193109807   F   F   F
  7.8470256460631829  6.1032012324929870 13.9190145193109807   F   F   F
  6.1032503944897449  9.5907517356398593 13.9190145193109807   F   F   F
  4.3594751429163070 13.0783022387867316 13.9190145193109842   F   F   F
 20.0534524070772306 16.5658527419336039 13.9190145193109824   F   F   F
  6.1032503944897440  0.8718754777726782 13.9190145193109807   F   F   F
  4.3594751429163088  4.3594259809195499 13.9190145193109807   F   F   F
  2.6156998913428713  7.8469764840664222 13.9190145193109807   F   F   F
 18.3096771555037918 11.3345269872132928 13.9190145193109842   F   F   F
  0.8719246397694370  2.6156507293461142 13.9190145193109824   F   F   F
 16.5659019039303637  6.1032012324929878 13.9190145193109842   F   F   F
 14.8221266523569266  0.8718754777726788 13.9190145193109842   F   F   F
 16.5659019039303530 14.8220774903601651 17.8182145193109811   T   T   T
 14.8221266523569160 18.3096279935070392 17.8182145193109776   T   T   T
 14.8221266523569266  9.5907517356398593 17.8182145193109776   T   T   T
 13.0783514007834913 13.0783022387867351 17.8182145193109811   T   T   T
 11.3345761492100525 16.5658527419336075 17.8182145193109811   T   T   T
 13.0783514007834860  4.3594259809195508 17.8182145193109776   T   T   T
 11.3345761492100561  7.8469764840664249 17.8182145193109776   T   T   T
  9.5908008976366190 11.3345269872132963 17.8182145193109776   T   T   T
  7.8470256460631820 14.8220774903601669 17.8182145193109776   T   T   T
  6.1032503944897449 18.3096279935070392 17.8182145193109776   T   T   T
  9.5908008976366208  2.6156507293461146 17.8182145193109776   T   T   T
  7.8470256460631829  6.1032012324929870 17.8182145193109776   T   T   T
  6.1032503944897449  9.5907517356398593 17.8182145193109776   T   T   T
  4.3594751429163070 13.0783022387867316 17.8182145193109776   T   T   T
 20.0534524070772306 16.5658527419336039 17.8182145193109776   T   T   T
  6.1032503944897440  0.8718754777726782 17.8182145193109811   T   T   T
  4.3594751429163088  4.3594259809195499 17.8182145193109811   T   T   T
  2.6156998913428713  7.8469764840664222 17.8182145193109776   T   T   T
 18.3096771555037918 11.3345269872132928 17.8182145193109811   T   T   T
  0.8719246397694370  2.6156507293461142 17.8182145193109811   T   T   T
 16.5659019039303637  6.1032012324929878 17.8182145193109776   T   T   T
 14.8221266523569266  0.8718754777726788 17.8182145193109776   T   T   T
 15.6940039653765933 16.5658574224064985 10.0198252580961693   F   F   F
 10.4626782106562874  0.8718801582455720 10.0198252580961675   F   F   F
 13.9502287138031633 11.3345316676861891 10.0198252580961693   F   F   F
 12.2064534622297209 14.8220821708330615 10.0198252580961693   F   F   F
 10.4626782106562874 18.3096326739799338 10.0198252580961693   F   F   F
 12.2064534622297245  6.1032059129658807 10.0198252580961640   F   F   F
 10.4626782106562910  9.5907564161127539 10.0198252580961640   F   F   F
  8.7189029590828557 13.0783069192596262 10.0198252580961693   F   F   F
  6.9751277075094169 16.5658574224064985 10.0198252580961693   F   F   F
  1.7438019527891131  0.8718801582455763 10.0198252580961658   F   F   F
  8.7189029590828540  4.3594306613924436 10.0198252580961675   F   F   F
  6.9751277075094169  7.8469811645393159 10.0198252580961675   F   F   F
  5.2313524559359816 11.3345316676861909 10.0198252580961658   F   F   F
  3.4875772043625428 14.8220821708330615 10.0198252580961640   F   F   F
 19.1815544685234656 18.3096326739799338 10.0198252580961675   F   F   F
  5.2313524559359807  2.6156554098190075 10.0198252580961658   F   F   F
  3.4875772043625441  6.1032059129658798 10.0198252580961658   F   F   F
  1.7438019527891071  9.5907564161127521 10.0198252580961658   F   F   F
 17.4377792169500339 13.0783069192596209 10.0198252580961693   F   F   F
 17.4377792169500303  4.3594306613924436 10.0198252580961693   F   F   F
 15.6940039653765950  7.8469811645393159 10.0198252580961693   F   F   F
 13.9502287138031633  2.6156554098190075 10.0198252580961640   F   F   F
 14.8221145984001819 13.9501843136870836 10.0198299083924649   F   F   F
 13.0783393468267537 17.4377348168339523 10.0198299083924649   F   F   F
 13.0783393468267519  8.7188585589667742 10.0198299083924596   F   F   F
 11.3345640952533131 12.2064090621136465 10.0198299083924649   F   F   F
  9.5907888436798778 15.6939595652605153 10.0198299083924649   F   F   F
 11.3345640952533131  3.4875328042464617 10.0198299083924631   F   F   F
  9.5907888436798761  6.9750833073933345 10.0198299083924613   F   F   F
  7.8470135921064381 10.4626338105402059 10.0198299083924613   F   F   F
  6.1032383405330028 13.9501843136870782 10.0198299083924613   F   F   F
  4.3594630889595685 17.4377348168339559 10.0198299083924596   F   F   F
  7.8470135921064408  1.7437575526730256 10.0198299083924613   F   F   F
  6.1032383405330046  5.2313080558198983 10.0198299083924613   F   F   F
  4.3594630889595649  8.7188585589667706 10.0198299083924613   F   F   F
  2.6156878373861288 12.2064090621136447 10.0198299083924613   F   F   F
 18.3096651015470542 15.6939595652605171 10.0198299083924649   F   F   F
  7.8470135921064372 19.1815100684073876 10.0198299083924649   F   F   F
  2.6156878373861332  3.4875328042464622 10.0198299083924613   F   F   F
 18.3096651015470542  6.9750833073933345 10.0198299083924649   F   F   F
 16.5658898499736225 10.4626338105402077 10.0198299083924649   F   F   F
 16.5658898499736189  1.7437575526730262 10.0198299083924596   F   F   F
 14.8221145984001836  5.2313080558198983 10.0198299083924596   F   F   F
 16.5658898499736189 19.1815100684073876 10.0198299083924649   F   F   F
 16.5658979262950403 14.8220751469393974 11.9694385342554295   F   F   F
 14.8221226747215979 18.3096256500862644 11.9694385342554295   F   F   F
 14.8221226747216051  9.5907493922190881 11.9694385342554295   F   F   F
 13.0783474231481698 13.0782998953659604 11.9694385342554295   F   F   F
 11.3345721715747292 16.5658503985128327 11.9694385342554295   F   F   F
 13.0783474231481716  4.3594236374987778 11.9694385342554259   F   F   F
 11.3345721715747292  7.8469741406456501 11.9694385342554259   F   F   F
  9.5907969200012992 11.3345246437925216 11.9694385342554259   F   F   F
  7.8470216684278595 14.8220751469393974 11.9694385342554259   F   F   F
  6.1032464168544216 18.3096256500862715 11.9694385342554259   F   F   F
  9.5907969200013010  2.6156483859253421 11.9694385342554277   F   F   F
  7.8470216684278613  6.1031988890722149 11.9694385342554259   F   F   F
  6.1032464168544243  9.5907493922190863 11.9694385342554259   F   F   F
  4.3594711652809881 13.0782998953659604 11.9694385342554259   F   F   F
 20.0534484294419109 16.5658503985128291 11.9694385342554295   F   F   F
  6.1032464168544260  0.8718731343519054 11.9694385342554277   F   F   F
  4.3594711652809908  4.3594236374987778 11.9694385342554277   F   F   F
  2.6156959137075528  7.8469741406456510 11.9694385342554277   F   F   F
 18.3096731778684720 11.3345246437925198 11.9694385342554295   F   F   F
  0.8719206621341179  2.6156483859253421 11.9694385342554277   F   F   F
 16.5658979262950403  6.1031988890722149 11.9694385342554295   F   F   F
 14.8221226747216068  0.8718731343519061 11.9694385342554259   F   F   F
 15.6940039653765933 16.5658574224064985 13.9190252580961698   F   F   F
 10.4626782106562874  0.8718801582455720 13.9190252580961662   F   F   F
 13.9502287138031633 11.3345316676861891 13.9190252580961698   F   F   F
 12.2064534622297209 14.8220821708330615 13.9190252580961698   F   F   F
 10.4626782106562874 18.3096326739799338 13.9190252580961698   F   F   F
 12.2064534622297245  6.1032059129658807 13.9190252580961698   F   F   F
 10.4626782106562910  9.5907564161127539 13.9190252580961698   F   F   F
  8.7189029590828557 13.0783069192596262 13.9190252580961698   F   F   F
  6.9751277075094169 16.5658574224064985 13.9190252580961698   F   F   F
  1.7438019527891131  0.8718801582455763 13.9190252580961680   F   F   F
  8.7189029590828540  4.3594306613924436 13.9190252580961662   F   F   F
  6.9751277075094169  7.8469811645393159 13.9190252580961662   F   F   F
  5.2313524559359816 11.3345316676861909 13.9190252580961662   F   F   F
  3.4875772043625428 14.8220821708330615 13.9190252580961698   F   F   F
 19.1815544685234656 18.3096326739799338 13.9190252580961680   F   F   F
  5.2313524559359807  2.6156554098190075 13.9190252580961662   F   F   F
  3.4875772043625441  6.1032059129658798 13.9190252580961662   F   F   F
  1.7438019527891071  9.5907564161127521 13.9190252580961662   F   F   F
 17.4377792169500339 13.0783069192596209 13.9190252580961698   F   F   F
 17.4377792169500303  4.3594306613924436 13.9190252580961698   F   F   F
 15.6940039653765950  7.8469811645393159 13.9190252580961698   F   F   F
 13.9502287138031633  2.6156554098190075 13.9190252580961698   F   F   F
 14.8221145984001819 13.9501843136870836 13.9190299083924618   F   F   F
 13.0783393468267537 17.4377348168339523 13.9190299083924618   F   F   F
 13.0783393468267519  8.7188585589667742 13.9190299083924582   F   F   F
 11.3345640952533131 12.2064090621136465 13.9190299083924582   F   F   F
  9.5907888436798778 15.6939595652605153 13.9190299083924582   F   F   F
 11.3345640952533131  3.4875328042464617 13.9190299083924636   F   F   F
  9.5907888436798761  6.9750833073933345 13.9190299083924582   F   F   F
  7.8470135921064381 10.4626338105402059 13.9190299083924582   F   F   F
  6.1032383405330028 13.9501843136870782 13.9190299083924582   F   F   F
  4.3594630889595685 17.4377348168339559 13.9190299083924582   F   F   F
  7.8470135921064408  1.7437575526730256 13.9190299083924600   F   F   F
  6.1032383405330046  5.2313080558198983 13.9190299083924636   F   F   F
  4.3594630889595649  8.7188585589667706 13.9190299083924636   F   F   F
  2.6156878373861288 12.2064090621136447 13.9190299083924636   F   F   F
 18.3096651015470542 15.6939595652605171 13.9190299083924618   F   F   F
  7.8470135921064372 19.1815100684073876 13.9190299083924618   F   F   F
  2.6156878373861332  3.4875328042464622 13.9190299083924600   F   F   F
 18.3096651015470542  6.9750833073933345 13.9190299083924618   F   F   F
 16.5658898499736225 10.4626338105402077 13.9190299083924618   F   F   F
 16.5658898499736189  1.7437575526730262 13.9190299083924582   F   F   F
 14.8221145984001836  5.2313080558198983 13.9190299083924582   F   F   F
 16.5658898499736189 19.1815100684073876 13.9190299083924618   F   F   F
 16.5658979262950403 14.8220751469393974 15.8686385342554299   T   T   T
 14.8221226747215979 18.3096256500862644 15.8686385342554299   T   T   T
 14.8221226747216051  9.5907493922190881 15.8686385342554299   T   T   T
 13.0783474231481698 13.0782998953659604 15.8686385342554299   T   T   T
 11.3345721715747292 16.5658503985128327 15.8686385342554299   T   T   T
 13.0783474231481716  4.3594236374987778 15.8686385342554264   T   T   T
 11.3345721715747292  7.8469741406456501 15.8686385342554299   T   T   T
  9.5907969200012992 11.3345246437925216 15.8686385342554299   T   T   T
  7.8470216684278595 14.8220751469393974 15.8686385342554299   T   T   T
  6.1032464168544216 18.3096256500862715 15.8686385342554299   T   T   T
  9.5907969200013010  2.6156483859253421 15.8686385342554264   T   T   T
  7.8470216684278613  6.1031988890722149 15.8686385342554264   T   T   T
  6.1032464168544243  9.5907493922190863 15.8686385342554264   T   T   T
  4.3594711652809881 13.0782998953659604 15.8686385342554264   T   T   T
 20.0534484294419109 16.5658503985128291 15.8686385342554281   T   T   T
  6.1032464168544260  0.8718731343519054 15.8686385342554264   T   T   T
  4.3594711652809908  4.3594236374987778 15.8686385342554264   T   T   T
  2.6156959137075528  7.8469741406456510 15.8686385342554264   T   T   T
 18.3096731778684720 11.3345246437925198 15.8686385342554299   T   T   T
  0.8719206621341179  2.6156483859253421 15.8686385342554281   T   T   T
 16.5658979262950403  6.1031988890722149 15.8686385342554299   T   T   T
 14.8221226747216068  0.8718731343519061 15.8686385342554264   T   T   T
 15.6940039653765933 16.5658574224064985 17.8182252580961631   T   T   T
 10.4626782106562874  0.8718801582455720 17.8182252580961631   T   T   T
 13.9502287138031633 11.3345316676861891 17.8182252580961631   T   T   T
 12.2064534622297209 14.8220821708330615 17.8182252580961666   T   T   T
 10.4626782106562874 18.3096326739799338 17.8182252580961666   T   T   T
 12.2064534622297245  6.1032059129658807 17.8182252580961631   T   T   T
 10.4626782106562910  9.5907564161127539 17.8182252580961631   T   T   T
  8.7189029590828557 13.0783069192596262 17.8182252580961631   T   T   T
  6.9751277075094169 16.5658574224064985 17.8182252580961631   T   T   T
  1.7438019527891131  0.8718801582455763 17.8182252580961595   T   T   T
  8.7189029590828540  4.3594306613924436 17.8182252580961631   T   T   T
  6.9751277075094169  7.8469811645393159 17.8182252580961631   T   T   T
  5.2313524559359816 11.3345316676861909 17.8182252580961631   T   T   T
  3.4875772043625428 14.8220821708330615 17.8182252580961631   T   T   T
 19.1815544685234656 18.3096326739799338 17.8182252580961631   T   T   T
  5.2313524559359807  2.6156554098190075 17.8182252580961595   T   T   T
  3.4875772043625441  6.1032059129658798 17.8182252580961631   T   T   T
  1.7438019527891071  9.5907564161127521 17.8182252580961631   T   T   T
 17.4377792169500339 13.0783069192596209 17.8182252580961666   T   T   T
 17.4377792169500303  4.3594306613924436 17.8182252580961631   T   T   T
 15.6940039653765950  7.8469811645393159 17.8182252580961631   T   T   T
 13.9502287138031633  2.6156554098190075 17.8182252580961631   T   T   T
 14.8221145984001819 13.9501843136870836 17.8182299083924605   T   T   T
 13.0783393468267537 17.4377348168339523 17.8182299083924605   T   T   T
 13.0783393468267519  8.7188585589667742 17.8182299083924605   T   T   T
 11.3345640952533131 12.2064090621136465 17.8182299083924605   T   T   T
  9.5907888436798778 15.6939595652605153 17.8182299083924605   T   T   T
 11.3345640952533131  3.4875328042464617 17.8182299083924640   T   T   T
  9.5907888436798761  6.9750833073933345 17.8182299083924640   T   T   T
  7.8470135921064381 10.4626338105402059 17.8182299083924640   T   T   T
  6.1032383405330028 13.9501843136870782 17.8182299083924640   T   T   T
  4.3594630889595685 17.4377348168339559 17.8182299083924605   T   T   T
  7.8470135921064408  1.7437575526730256 17.8182299083924640   T   T   T
  6.1032383405330046  5.2313080558198983 17.8182299083924640   T   T   T
  4.3594630889595649  8.7188585589667706 17.8182299083924640   T   T   T
  2.6156878373861288 12.2064090621136447 17.8182299083924640   T   T   T
 18.3096651015470542 15.6939595652605171 17.8182299083924605   T   T   T
  7.8470135921064372 19.1815100684073876 17.8182299083924605   T   T   T
  2.6156878373861332  3.4875328042464622 17.8182299083924640   T   T   T
 18.3096651015470542  6.9750833073933345 17.8182299083924605   T   T   T
 16.5658898499736225 10.4626338105402077 17.8182299083924605   T   T   T
 16.5658898499736189  1.7437575526730262 17.8182299083924640   T   T   T
 14.8221145984001836  5.2313080558198983 17.8182299083924605   T   T   T
 16.5658898499736189 19.1815100684073876 17.8182299083924605   T   T   T
 16.5658979262950403 14.8220751469393974 19.7678385342554215   T   T   T
 14.8221226747215979 18.3096256500862644 19.7678385342554215   T   T   T
 14.8221226747216051  9.5907493922190881 19.7678385342554215   T   T   T
 13.0783474231481698 13.0782998953659604 19.7678385342554215   T   T   T
 11.3345721715747292 16.5658503985128327 19.7678385342554215   T   T   T
 13.0783474231481716  4.3594236374987778 19.7678385342554250   T   T   T
 11.3345721715747292  7.8469741406456501 19.7678385342554250   T   T   T
  9.5907969200012992 11.3345246437925216 19.7678385342554250   T   T   T
  7.8470216684278595 14.8220751469393974 19.7678385342554250   T   T   T
  6.1032464168544216 18.3096256500862715 19.7678385342554250   T   T   T
  9.5907969200013010  2.6156483859253421 19.7678385342554250   T   T   T
  7.8470216684278613  6.1031988890722149 19.7678385342554250   T   T   T
  6.1032464168544243  9.5907493922190863 19.7678385342554250   T   T   T
  4.3594711652809881 13.0782998953659604 19.7678385342554250   T   T   T
 20.0534484294419109 16.5658503985128291 19.7678385342554215   T   T   T
  6.1032464168544260  0.8718731343519054 19.7678385342554250   T   T   T
  4.3594711652809908  4.3594236374987778 19.7678385342554250   T   T   T
  2.6156959137075528  7.8469741406456510 19.7678385342554250   T   T   T
 18.3096731778684720 11.3345246437925198 19.7678385342554215   T   T   T
  0.8719206621341179  2.6156483859253421 19.7678385342554250   T   T   T
 16.5658979262950403  6.1031988890722149 19.7678385342554215   T   T   T
 14.8221226747216068  0.8718731343519061 19.7678385342554250   T   T   T
 16.4298491097861437  3.2993238908449105 35.4858520958571972   T   T   T
  4.2234223487720879  8.0947058326718579 35.4858520958571972   T   T   T
 10.3266357292791167  5.6970148617583858 35.4858520958571972   T   T   T
  3.3515347229853698 15.2877787454122842 35.4858520958571972   T   T   T
  9.4547481034923919 12.8900877744988076 35.4858520958571972   T   T   T
 15.5579614839994207 10.4923968035853310 35.4858520958572043   T   T   T
  5.0953099745588091  0.9016329199314350 35.4858520958571972   T   T   T
 14.6860738582127048 17.6854697163257590 35.4858520958572043   T   T   T
 10.0424195630808075  3.2394706101557151 35.9176033662303738   T   T   T
 15.2737453178011133  8.0348525519826630 35.9176033662303738   T   T   T
  3.9392061825737836  5.6371615810691855 35.9176033662303738   T   T   T
 14.4018576920143957 15.2279254647230875 35.9176033662303738   T   T   T
  3.0673185567870647 12.8302344938096091 35.9176033662303738   T   T   T
  9.1705319372940934 10.4325435228961378 35.9176033662303738   T   T   T
 16.1456329435878345  0.8417796392422449 35.9176033662303738   T   T   T
  8.2986443115073723 17.6256164356365588 35.9176033662303809   T   T   T
 10.9467297430646351  0.8603844027596155 36.9268730896906447   T   T   T
 16.1780554977849533  5.6557663445865645 36.9268730896906519   T   T   T
  4.8435163625576170  3.2580753736730883 36.9268730896906447   T   T   T
 15.3061678719982339 12.8488392573269881 36.9268730896906519   T   T   T
  3.9716287367708993 10.4511482864135115 36.9268730896906447   T   T   T
 10.0748421172779246  8.0534573155000384 36.9268730896906519   T   T   T
 20.5374936267185397 17.6442211991539359 36.9268730896906519   T   T   T
  9.2029544914911998 15.2465302282404611 36.9268730896906519   T   T   T
 15.5255412128259227  5.6783963711637107 34.4765691854955918   T   T   T
  3.3191144518118696 10.4737783129906568 34.4765691854955847   T   T   T
  9.4223278323188939  8.0760873420771819 34.4765691854955918   T   T   T
 19.8849793417595109 17.6668512257310830 34.4765691854955918   T   T   T
  8.5504402065321852 15.2691602548176100 34.4765691854955918   T   T   T
 14.6536535870392086 12.8714692839041351 34.4765691854955918   T   T   T
  4.1910020775985934  3.2807054002502376 34.4765691854955847   T   T   T
 10.2942154581056151  0.8830144293367648 34.4765691854955847   T   T   T
 13.7837021980489762  0.6004116087621886 36.5503468542616545   T   T   T
  1.5772754370349280  5.3957935505891363 36.5503468542616545   T   T   T
  7.6804888175419554  2.9981025796756642 36.5503468542616545   T   T   T
 18.1431403269825680 12.5888664633295591 36.5503468542616474   T   T   T
  6.8086011917552378 10.1911754924160878 36.5503468542616545   T   T   T
 12.9118145722622586  7.7934845215026129 36.5503468542616474   T   T   T
  5.9367135659685148 17.3842484051565087 36.5503468542616474   T   T   T
 12.0399269464755374 14.9865574342430339 36.5503468542616474   T   T   T
 12.6885715386842435  5.9383797523462389 34.8531041855146526   T   T   T
 17.9198972934045493 10.7337616941731842 34.8531041855146526   T   T   T
  6.5853581581772218  8.3360707232597111 34.8531041855146597   T   T   T
 17.0480096676178299 17.9268346069136122 34.8531041855146526   T   T   T
  5.7134705323905051 15.5291436360001374 34.8531041855146526   T   T   T
 11.8166839128975258 13.1314526650866608 34.8531041855146526   T   T   T
  1.3540324034569176  3.5406887814327654 34.8531041855146455   T   T   T
  7.4572457839639448  1.1429978105192904 34.8531041855146455   T   T   T
 13.8253913151089733  4.1625329998870075 36.3610607035772162   T   T   T
 19.0567170698292792  8.9579149417139572 36.3610607035772091   T   T   T
  7.7221779346019490  6.5602239708004815 36.3610607035772091   T   T   T
 18.1848294440425597 16.1509878544543817 36.3610607035772091   T   T   T
  6.8502903088152243 13.7532968835409033 36.3610607035772162   T   T   T
 12.9535036893222486 11.3556059126274302 36.3610607035772162   T   T   T
  2.4908521798816419  1.7648420289735329 36.3610607035772091   T   T   T
 12.0816160635355345 18.5486788253678583 36.3610607035772162   T   T   T
 12.6468848002105663  2.3762589186042780 35.0423966002256577   T   T   T
 17.8782105549308667  7.1716408604312258 35.0423966002256577   T   T   T
  6.5436714197035446  4.7739498895177492 35.0423966002256577   T   T   T
 17.0063229291441544 14.3647137731716477 35.0423966002256577   T   T   T
  5.6717837939168243 11.9670228022581728 35.0423966002256577   T   T   T
 11.7749971744238451  9.5693318313447016 35.0423966002256577   T   T   T
  4.7998961681301102 19.1600957149986009 35.0423966002256577   T   T   T
 10.9031095486371239 16.7624047440851207 35.0423966002256648   T   T   T
  2.7763600418561425  4.3345360739968051 32.3711694330471644   T   T   T
  8.0076857965764496  9.1299180158237547 32.3711694330471644   T   T   T
 14.1108991770834713  6.7322270449102808 32.3711694330471644   T   T   T
  7.1357981707897267 16.3229909285641774 32.3711694330471644   T   T   T
 13.2390115512967466 13.9252999576507026 32.3711694330471644   T   T   T
 19.3422249318037807 11.5276089867372260 32.3711694330471644   T   T   T
  8.8795734223631655  1.9368451030833318 32.3711694330471644   T   T   T
 18.4703373060170577 18.7206818994776540 32.3711694330471715   T   T   T
 13.8266830108851675  4.2746827933076101 32.8029207034203409   T   T   T
 19.0580087656054751  9.0700647351345580 32.8029207034203409   T   T   T
  7.7234696303781396  6.6723737642210796 32.8029207034203409   T   T   T
 18.1861211398187557 16.2631376478749843 32.8029207034203267   T   T   T
  6.8515820045914211 13.8654466769615041 32.8029207034203409   T   T   T
 12.9547953850984534 11.4677557060480293 32.8029207034203338   T   T   T
  2.4921438756578387  1.8769918223941375 32.8029207034203409   T   T   T
 12.0829077593117269 18.6608286187884538 32.8029207034203267   T   T   T
 14.7309931908689986  1.8955965859115123 33.8121904268806119   T   T   T
  2.5245664298549482  6.6909785277384577 33.8121904268806119   T   T   T
  8.6277798103619645  4.2932875568249820 33.8121904268806119   T   T   T
 19.0904313198025939 13.8840514404788831 33.8121904268806119   T   T   T
  7.7558921845752549 11.4863604695654065 33.8121904268806119   T   T   T
 13.8591055650822792  9.0886694986519316 33.8121904268806119   T   T   T
  6.8840045587885355 18.6794333823058309 33.8121904268806119   T   T   T
 12.9872179392955598 16.2817424113923543 33.8121904268806119   T   T   T
  1.8720521448959193  6.7136085543156065 31.3618865226855448   T   T   T
  7.1033778996162242 11.5089904961425518 31.3618865226855448   T   T   T
 13.2065912801232521  9.1112995252290769 31.3618865226855448   T   T   T
  6.2314902738295093 18.7020634088829780 31.3618865226855412   T   T   T
 12.3347036543365451 16.3043724379695050 31.3618865226855412   T   T   T
 18.4379170348435615 13.9066814670560301 31.3618865226855412   T   T   T
  7.9752655254029454  4.3159175834021308 31.3618865226855448   T   T   T
 14.0784789059099680  1.9182266124886573 31.3618865226855448   T   T   T
 17.5679656458533486  1.6356237919140812 33.4356641914516075   T   T   T
  5.3615388848392884  6.4310057337410313 33.4356641914516075   T   T   T
 11.4647522653463145  4.0333147628275601 33.4356641914516075   T   T   T
  4.4896512590525681 13.6240786464814558 33.4356641914516075   T   T   T
 10.5928646395595951 11.2263876755679792 33.4356641914516217   T   T   T
 16.6960780200666221  8.8286967046545097 33.4356641914516075   T   T   T
  9.7209770137728757 18.4194605883084037 33.4356641914516075   T   T   T
 15.8241903942798992 16.0217696173949271 33.4356641914516146   T   T   T
 16.4728349864886070  6.9735919354981348 31.7384215227046163   T   T   T
  4.2664082254745503 11.7689738773250809 31.7384215227046056   T   T   T
 10.3696216059815765  9.3712829064116043 31.7384215227046056   T   T   T
 20.8322731154222005 18.9620467900655072 31.7384215227046020   T   T   T
  9.4977339801948624 16.5643558191520341 31.7384215227046056   T   T   T
 15.6009473607018840 14.1666648482385558 31.7384215227046163   T   T   T
  5.1382958512612733  4.5759009645846609 31.7384215227046056   T   T   T
 11.2415092317683065  2.1782099936711870 31.7384215227045949   T   T   T
 17.6096547629133262  5.1977451830389034 33.2463780407671763   T   T   T
  5.4032280018992775  9.9931271248658522 33.2463780407671763   T   T   T
 11.5064413824063045  7.5954361539523774 33.2463780407671763   T   T   T
  4.5313403761125590 17.1862000376062767 33.2463780407671621   T   T   T
 10.6345537566195816 14.7885090666927983 33.2463780407671763   T   T   T
 16.7377671371266104 12.3908180957793288 33.2463780407671621   T   T   T
  6.2751156276860014  2.8000542121254255 33.2463780407671763   T   T   T
 12.3783290081930275  0.4023632412119554 33.2463780407671550   T   T   T
 16.4311482480149138  3.4114711017561725 31.9277139374156249   T   T   T
  4.2247214870008696  8.2068530435831200 31.9277139374156178   T   T   T
 10.3279348675078921  5.8091620726696451 31.9277139374156143   T   T   T
  3.3528338612141551 15.3999259563235444 31.9277139374156036   T   T   T
  9.4560472417211709 13.0022349854100678 31.9277139374156143   T   T   T
 15.5592606222281979 10.6045440144965930 31.9277139374156249   T   T   T
  5.0966091127875908  1.0137801308426992 31.9277139374156178   T   T   T
 14.6873729964414910 17.7976169272370193 31.9277139374156143   T   T   T
  6.5606234896604994  5.3697482571487010 29.2564867702371281   T   T   T
 11.7919492443808061 10.1651301989756480 29.2564867702371245   T   T   T
 17.8951626248878277  7.7674392280621767 29.2564867702371245   T   T   T
 10.9200616185940849 17.3582031117160724 29.2564867702371245   T   T   T
 17.0232749991011154 14.9605121408025976 29.2564867702371139   T   T   T
  5.6887358638737870 12.5628211698891228 29.2564867702371139   T   T   T
 12.6638368701675272  2.9720572862352244 29.2564867702371139   T   T   T
  1.3292977349401927  0.5743663153217543 29.2564867702371174   T   T   T
 17.6109464586895257  5.3098949764595051 29.6882380406102904   T   T   T
  5.4045196976754717 10.1052769182864548 29.6882380406102904   T   T   T
 11.5077330781824987  7.7075859473729755 29.6882380406102904   T   T   T
  4.5326320718887514 17.2983498310268757 29.6882380406102904   T   T   T
 10.6358454523957864 14.9006588601134009 29.6882380406102797   T   T   T
 16.7390588329028063 12.5029678891999261 29.6882380406102904   T   T   T
  6.2764073234621973  2.9122040055460343 29.6882380406102797   T   T   T
 12.3796207039692163  0.5145130346325557 29.6882380406102904   T   T   T
  1.0775041229389981  2.9308087690634048 30.6975077640705614   T   T   T
  6.3088298776593010  7.7261907108903536 30.6975077640705614   T   T   T
 12.4120432581663245  5.3284997399768770 30.6975077640705614   T   T   T
  5.4369422518725807 14.9192636236307781 30.6975077640705614   T   T   T
 11.5401556323796051 12.5215726527172997 30.6975077640705614   T   T   T
 17.6433690128866374 10.1238816818038284 30.6975077640705614   T   T   T
  7.1807175034460222  0.5331177981499305 30.6975077640705614   T   T   T
 16.7714813870999180 17.3169545945442529 30.6975077640705685   T   T   T
  5.6563155927002731  7.7488207374674998 28.2472038598755120   T   T   T
 10.8876413474205780 12.5442026792944468 28.2472038598755013   T   T   T
 16.9908547279276085 10.1465117083809719 28.2472038598755120   T   T   T
  6.5282032184869925  0.5557478247270800 28.2472038598755155   T   T   T
 16.1189671021408927 17.3395846211214000 28.2472038598755120   T   T   T
  4.7844279669135563 14.9418936502079251 28.2472038598755013   T   T   T
 11.7595289732072992  5.3511297665540267 28.2472038598755120   T   T   T
 17.8627423537143315  2.9534387956405541 28.2472038598755013   T   T   T
  3.9144765779233377  2.6708359750659780 30.3209815286415605   T   T   T
  9.1458023326436440  7.4662179168929255 30.3209815286415676   T   T   T
 15.2490157131506727  5.0685269459794542 30.3209815286415676   T   T   T
  8.2739147068569245 14.6592908296333508 30.3209815286415676   T   T   T
 14.3771280873639569 12.2615998587198760 30.3209815286415676   T   T   T
  3.0425889521366187  9.8639088878064030 30.3209815286415676   T   T   T
 10.0176899584303669  0.2731450041525079 30.3209815286415711   T   T   T
 19.6084538420842556 17.0569818005468257 30.3209815286415676   T   T   T
  2.8193459185586001  8.0088041186500298 28.6237388598945728   T   T   T
  8.0506716732789059 12.8041860604769759 28.6237388598945621   T   T   T
 14.1538850537859329 10.4064950895634993 28.6237388598945621   T   T   T
  3.6912335443453199  0.8157312059096054 28.6237388598945657   T   T   T
 13.2819974279992223 17.5995680023039256 28.6237388598945621   T   T   T
 19.3852108085062440 15.2018770313904525 28.6237388598945621   T   T   T
  8.9225592990656253  5.6111131477365541 28.6237388598945728   T   T   T
 15.0257726795726576  3.2134221768230797 28.6237388598945621   T   T   T
  3.9561656949833202  6.2329573661907975 30.1316953779571257   T   T   T
  9.1874914497036322 11.0283393080177472 30.1316953779571257   T   T   T
 15.2907048302106627  8.6306483371042741 30.1316953779571257   T   T   T
  8.3156038239169074 18.2214122207581681 30.1316953779571257   T   T   T
 14.4188172044239433 15.8237212498446933 30.1316953779571222   T   T   T
  3.0842780691966003 13.4260302789312185 30.1316953779571257   T   T   T
 10.0593790754903569  3.8352663952773223 30.1316953779571257   T   T   T
 16.1625924559973804  1.4375754243638479 30.1316953779571257   T   T   T
  2.7776591800849166  4.4466832849080662 28.8130312746055743   T   T   T
  8.0089849348052269  9.2420652267350132 28.8130312746055743   T   T   T
 14.1121983153122503  6.8443742558215375 28.8130312746055743   T   T   T
  7.1370973090185101 16.4351381394754377 28.8130312746055708   T   T   T
 13.2403106895255362 14.0374471685619628 28.8130312746055708   T   T   T
 19.3435240700325579 11.6397561976484898 28.8130312746055708   T   T   T
  8.8808725605919481  2.0489923139945962 28.8130312746055743   T   T   T
 18.4716364442458421 18.8328291103889107 28.8130312746055708   T   T   T
 10.3448869374648496  6.4049604403005933 26.1418041074270810   T   T   T
 15.5762126921851678 11.2003423821275430 26.1418041074270810   T   T   T
  4.2416735569578377  8.8026514112140735 26.1418041074270739   T   T   T
 14.7043250663984484 18.3934152948679674 26.1418041074270704   T   T   T
  3.3697859311711129 15.9957243239544926 26.1418041074270739   T   T   T
  9.4729993116781408 13.5980333530410178 26.1418041074270704   T   T   T
 16.4481003179718783  4.0072694693871167 26.1418041074270739   T   T   T
  5.1135611827445526  1.6095784984736512 26.1418041074270739   T   T   T
  3.9574573907595165  6.3451071596114001 26.5735553778002505   T   T   T
  9.1887831454798246 11.1404891014383498 26.5735553778002469   T   T   T
 15.2919965259868498  8.7427981305248696 26.5735553778002469   T   T   T
  8.3168955196931087 18.3335620141787743 26.5735553778002362   T   T   T
 14.4201089002001357 15.9358710432652941 26.5735553778002362   T   T   T
  3.0855697649728016 13.5381800723518229 26.5735553778002469   T   T   T
 10.0606707712665493  3.9474161886979262 26.5735553778002505   T   T   T
 16.1638841517735656  1.5497252177844525 26.5735553778002469   T   T   T
  4.8617675707433543  3.9660209522152976 27.5828251012605214   T   T   T
 10.0930933254636610  8.7614028940422486 27.5828251012605179   T   T   T
 16.1963067059706844  6.3637119231287738 27.5828251012605179   T   T   T
  9.2212056996769398 15.9544758067826731 27.5828251012605179   T   T   T
 15.3244190801839633 13.5567848358691965 27.5828251012605179   T   T   T
  3.9898799449566300 11.1590938649557216 27.5828251012605286   T   T   T
 10.9649809512503822  1.5683299813018230 27.5828251012605214   T   T   T
 20.5557448349042708 18.3521667776961444 27.5828251012605286   T   T   T
  9.4405790405046304  8.7840329206193957 25.1325211970654685   T   T   T
 14.6719047952249397 13.5794148624463418 25.1325211970654578   T   T   T
  3.3373656599975972 11.1817238915328669 25.1325211970654721   T   T   T
 10.3124666662913569  1.5909600078789767 25.1325211970654721   T   T   T
 19.9032305499452562 18.3747968042732950 25.1325211970654685   T   T   T
  8.5686914147179198 15.9771058333598202 25.1325211970654685   T   T   T
 15.5437924210116574  6.3863419497059235 25.1325211970654685   T   T   T
  4.2092532857843254  3.9886509787924469 25.1325211970654721   T   T   T
  7.6987400257276972  3.7060481582178748 27.2062988658315170   T   T   T
 12.9300657804480039  8.5014301000448231 27.2062988658315277   T   T   T
  1.5955266452206640  6.1037391291313483 27.2062988658315277   T   T   T
 12.0581781546612792 15.6945030127852476 27.2062988658315241   T   T   T
 18.1613915351683168 13.2968120418717710 27.2062988658315135   T   T   T
  6.8268523999409778 10.8991210709582997 27.2062988658315170   T   T   T
 13.8019534062347233  1.3083571873044004 27.2062988658315277   T   T   T
  5.9549647741542584 18.0921939836987207 27.2062988658315135   T   T   T
  6.6036093663629520  9.0440163018019248 25.5090561970845293   T   T   T
 11.8349351210832694 13.8393982436288727 25.5090561970845187   T   T   T
 17.9381485015902911 11.4417072727153961 25.5090561970845187   T   T   T
  7.4754969921496768  1.8509433890615021 25.5090561970845222   T   T   T
 17.0662608758035717 18.6347801854558206 25.5090561970845187   T   T   T
  5.7317217405762477 16.2370892145423511 25.5090561970845187   T   T   T
 12.7068227468699853  6.6463253308884500 25.5090561970845222   T   T   T
  1.3722836116426615  4.2486343599749770 25.5090561970845222   T   T   T
  7.7404291427876810  7.2681695493426925 27.0170127151470822   T   T   T
 12.9717548975079975 12.0635514911696440 27.0170127151470716   T   T   T
 19.0749682780150174  9.6658605202561692 27.0170127151470822   T   T   T
  8.6123167685744040  0.0750966366022705 27.0170127151470751   T   T   T
 18.2030806522282909 16.8589334329965865 27.0170127151470822   T   T   T
  6.8685415170009572 14.4612424620831153 27.0170127151470822   T   T   T
 13.8436425232947045  4.8704785784292151 27.0170127151470822   T   T   T
  2.5091033880673828  2.4727876075157491 27.0170127151470858   T   T   T
  6.5619226278892757  5.4818954680599621 25.6983486117955309   T   T   T
 11.7932483826095851 10.2772774098869082 25.6983486117955309   T   T   T
 17.8964617631166121  7.8795864389734342 25.6983486117955309   T   T   T
 10.9213607568228674 17.4703503226273327 25.6983486117955309   T   T   T
 17.0245741373298927 15.0726593517138578 25.6983486117955380   T   T   T
  5.6900350021025572 12.6749683808003848 25.6983486117955309   T   T   T
 12.6651360083963116  3.0842044971464930 25.6983486117955202   T   T   T
  1.3305968731689739  0.6865135262330141 25.6983486117955344   T   T   T
 14.1291503852692131  7.4401726234524901 23.0271214446170340   T   T   T
 19.3604761399895153 12.2355545652794380 23.0271214446170376   T   T   T
  8.0259370047621932  9.8378635943659685 23.0271214446170340   T   T   T
 15.0010380110559343  0.2470997107120693 23.0271214446170340   T   T   T
  7.1540493789754569 17.0309365071063858 23.0271214446170376   T   T   T
 13.2572627594824901 14.6332455361929110 23.0271214446170376   T   T   T
  2.7946112500418785  5.0424816525390135 23.0271214446170411   T   T   T
  8.8978246305489019  2.6447906816255435 23.0271214446170340   T   T   T
  7.7417208385638778  7.3803193427632960 23.4588727149901963   T   T   T
 12.9730465932841863 12.1757012845902430 23.4588727149902034   T   T   T
 19.0762599737912169  9.7780103136767647 23.4588727149902034   T   T   T
  8.6136084643506017  0.1872464300228707 23.4588727149901963   T   T   T
 18.2043723480044868 16.9710832264171891 23.4588727149902034   T   T   T
  6.8698332127771611 14.5733922555037179 23.4588727149902034   T   T   T
 13.8449342190709039  4.9826283718498239 23.4588727149902070   T   T   T
  2.5103950838435551  2.5849374009363451 23.4588727149902070   T   T   T
  8.6460310185477116  5.0012331353671939 24.4681424384504780   T   T   T
 13.8773567732680156  9.7966150771941436 24.4681424384504780   T   T   T
  2.5428176380406753  7.3989241062806652 24.4681424384504780   T   T   T
 13.0054691474813033 16.9896879899345663 24.4681424384504744   T   T   T
 19.1086825279883143 14.5919970190210861 24.4681424384504851   T   T   T
  7.7741433927609860 12.1943060481076166 24.4681424384504851   T   T   T
 14.7492443990547262  2.6035421644537156 24.4681424384504886   T   T   T
  3.4147052638274080  0.2058511935402498 24.4681424384504673   T   T   T
 13.2248424883089832  9.8192451037712889 22.0178385342554250   T   T   T
 18.4561682430292926 14.6146270455982332 22.0178385342554250   T   T   T
  7.1216291078019500 12.2169360746847637 22.0178385342554215   T   T   T
 14.0967301140957186  2.6261721910308728 22.0178385342554250   T   T   T
  2.7621909788683645  0.2284812201173992 22.0178385342554286   T   T   T
 12.3529548625222692 17.0123180165117134 22.0178385342554286   T   T   T
  1.8903033530816438  7.4215541328578158 22.0178385342554286   T   T   T
  7.9935167335886819  5.0238631619443392 22.0178385342554215   T   T   T
 11.4830034735320456  4.7412603413697676 24.0916162030214736   T   T   T
 16.7143292282523639  9.5366422831967164 24.0916162030214807   T   T   T
  5.3797900930250240  7.1389513122832451 24.0916162030214736   T   T   T
 15.8424416024656374 16.7297151959371426 24.0916162030214807   T   T   T
  4.5079024672383055 14.3320242250236678 24.0916162030214736   T   T   T
 10.6111158477453316 11.9343332541101912 24.0916162030214807   T   T   T
 17.5862168540390833  2.3435693704562972 24.0916162030214842   T   T   T
  9.7392282219586157 19.1274061668506157 24.0916162030214807   T   T   T
 10.3878728141673182 10.0792284849538216 22.3943735342744858   T   T   T
 15.6191985688876223 14.8746104267807659 22.3943735342744858   T   T   T
  4.2846594336602939 12.4769194558672929 22.3943735342744752   T   T   T
 11.2597604399540359  2.8861555722133989 22.3943735342744752   T   T   T
 17.3629738204610646  0.4884646012999247 22.3943735342744823   T   T   T
  9.5159851883805970 17.2723013976942426 22.3943735342744787   T   T   T
 16.4910861946743417  7.6815375140403450 22.3943735342744858   T   T   T
  5.1565470594470124  5.2838465431268649 22.3943735342744823   T   T   T
 11.5246925905920463  8.3033817324945876 23.9023300523370388   T   T   T
 16.7560183453123486 13.0987636743215390 23.9023300523370388   T   T   T
  5.4214792100850229 10.7010727034080659 23.9023300523370388   T   T   T
 12.3965802163787622  1.1103088197541673 23.9023300523370423   T   T   T
  4.5495915842982990 17.8941456161484851 23.9023300523370317   T   T   T
 10.6528049648053251 15.4964546452350120 23.9023300523370388   T   T   T
 17.6279059710990715  5.9056907615811074 23.9023300523370423   T   T   T
  6.2933668358717378  3.5079997906676410 23.9023300523370423   T   T   T
 10.3461860756936357  6.5171076512118580 22.5836659489854874   T   T   T
 15.5775118304139415 11.3124895930388032 22.5836659489854910   T   T   T
  4.2429726951865989  8.9147986221253284 22.5836659489854874   T   T   T
 14.7056242046272292 18.5055625057792277 22.5836659489854839   T   T   T
  3.3710850693998866 16.1078715348657511 22.5836659489854910   T   T   T
  9.4742984499069074 13.7101805639522798 22.5836659489854910   T   T   T
 16.4493994562006627  4.1194166802983858 22.5836659489854874   T   T   T
  5.1148603209733254  1.7217257093849068 22.5836659489854945   T   T   T
