 DBCSR| CPU Multiplication driver                                           XSMM (U)
 DBCSR| Multrec recursion limit                                              512 (U)
 DBCSR| Multiplication stack size                                           1000 (D)
 DBCSR| Maximum elements for images                                    UNLIMITED (U)
 DBCSR| Multiplicative factor virtual images                                   1 (U)
 DBCSR| Use multiplication densification                                       T (D)
 DBCSR| Multiplication size stacks                                             3 (U)
 DBCSR| Use memory pool for CPU allocation                                     F (U)
 DBCSR| Number of 3D layers                                               SINGLE (U)
 DBCSR| Use MPI memory allocation                                              F (U)
 DBCSR| Use RMA algorithm                                                      F (U)
 DBCSR| Use Communication thread                                               T (U)
 DBCSR| Communication thread load                                             60 (D)
 DBCSR| MPI: My process id                                                     0
 DBCSR| MPI: Number of processes                                              64
 DBCSR| OMP: Current number of threads                                         8
 DBCSR| OMP: Max number of threads                                             8
 DBCSR| Split modifier for TAS multiplication algorithm                  1.0E+00 (U)


  **** **** ******  **  PROGRAM STARTED AT               2026-08-31 15:51:37.874
 ***** ** ***  *** **   PROGRAM STARTED ON                             nid006339
 **    ****   ******    PROGRAM STARTED BY                                agne_r
 ***** **    ** ** **   PROGRAM PROCESS ID                                108021
  **** **  *******  **  PROGRAM STARTED IN /mnt/lustre/a2fs-work3/work/e89/e89/a
                                           gne_r/Crystalline_HfO2_Interfaces/Cla
                                           ude/HfO2_STO_interfaces/V4_lattice_ma
                                           tches/updated/V4_lattice_matches/STO_
                                           HfO2_m111_pbesol_matches/configs/m06_
                                           A0350_eps1p2

 CP2K| version string:                                       CP2K version 2024.3
 CP2K| source code revision number:                                  git:6712648
 CP2K| cp2kflags: omp libint fftw3 libxc libgrpp elpa parallel scalapack cosma x
 CP2K|            smm plumed2 spglib mkl sirius libvori libbqb libvdwxc hdf5
 CP2K| is freely available from                            https://www.cp2k.org/
 CP2K| Program compiled at                       Thu 12 Sep 2024 10:20:47 AM BST
 CP2K| Program compiled on                                                  ln04
 CP2K| Program compiled for                                                local
 CP2K| Data directory path    /mnt/lustre/a2fs-work1/work/y07/shared/apps/core/c
 CP2K| Input file name                                                  cp2k.inp

 GLOBAL| Force Environment number                                              1
 GLOBAL| Basis set file name                                        BASIS_MOLOPT
 GLOBAL| Potential file name                                      GTH_POTENTIALS
 GLOBAL| MM Potential file name                                     MM_POTENTIAL
 GLOBAL| Coordinate file name                                      interface.cif
 GLOBAL| Method name                                                        CP2K
 GLOBAL| Project name                                           m06_A0350_eps1p2
 GLOBAL| Run type                                                   ENERGY_FORCE
 GLOBAL| FFT library                                                       FFTW3
 GLOBAL| Diagonalization library                                            ELPA
 GLOBAL| DGEMM library                                                      BLAS
 GLOBAL| Minimum number of eigenvectors for ELPA usage                        16
 GLOBAL| Orthonormality check for eigenvectors                          DISABLED
 GLOBAL| Matrix multiplication library                                     COSMA
 GLOBAL| All-to-all communication in single precision                          F
 GLOBAL| FFTs using library dependent lengths                                  T
 GLOBAL| Grid backend                                                       AUTO
 GLOBAL| Global print level                                                  LOW
 GLOBAL| MPI I/O enabled                                                       T
 GLOBAL| Total number of message passing processes                            64
 GLOBAL| Number of threads for this process                                    8
 GLOBAL| This output is from process                                           0
 GLOBAL| Stack size for threads created by OpenMP (OMP_STACKSIZE)        default
 GLOBAL| CPU model name                          AMD EPYC 7742 64-Core Processor
 GLOBAL| CPUID                                                              1002

 MEMORY| system memory details [Kb]
 MEMORY|                        rank 0           min           max       average
 MEMORY| MemTotal            263266840     263266804     263266864     263266841
 MEMORY| MemFree             249087208     249087208     249431040     249292538
 MEMORY| Buffers                204768        112612        204768        141364
 MEMORY| Cached                1208168       1190220       1208168       1199736
 MEMORY| Slab                  3414516       3245136       3414516       3333859
 MEMORY| SReclaimable          1425768       1403384       1425768       1411773
 MEMORY| MemLikelyFree       251925912     251925912     252153544     252045411


 GENERATE|  Preliminary Number of Bonds generated:                             0
 GENERATE|  Achieved consistency in connectivity generation.

 *******************************************************************************
 *******************************************************************************
 **                                                                           **
 **     #####                         ##              ##                      **
 **    ##   ##            ##          ##              ##                      **
 **   ##     ##                       ##            ######                    **
 **   ##     ##  ##   ##  ##   #####  ##  ##   ####   ##    #####    #####    **
 **   ##     ##  ##   ##  ##  ##      ## ##   ##      ##   ##   ##  ##   ##   **
 **   ##  ## ##  ##   ##  ##  ##      ####     ###    ##   ######   ######    **
 **    ##  ###   ##   ##  ##  ##      ## ##      ##   ##   ##       ##        **
 **     #######   #####   ##   #####  ##  ##  ####    ##    #####   ##        **
 **           ##                                                    ##        **
 **                                                                           **
 **                                                ... make the atoms dance   **
 **                                                                           **
 **            Copyright (C) by CP2K developers group (2000-2024)             **
 **                      J. Chem. Phys. 152, 194103 (2020)                    **
 **                                                                           **
 *******************************************************************************


 TOTAL NUMBERS AND MAXIMUM NUMBERS

  Total number of            - Atomic kinds:                                   4
                             - Atoms:                                        885
                             - Shell sets:                                   885
                             - Shells:                                      5241
                             - Primitive Cartesian functions:               4743
                             - Cartesian basis functions:                  16692
                             - Spherical basis functions:                  14811

  Maximum angular momentum of- Orbital basis functions:                        3
                             - Local part of the GTH pseudopotential:          2
                             - Non-local part of the GTH pseudopotential:      4


 SCF PARAMETERS         Density guess:                                    ATOMIC
                        --------------------------------------------------------
                        max_scf:                                              60
                        max_scf_history:                                       0
                        max_diis:                                              4
                        --------------------------------------------------------
                        eps_scf:                                        1.00E-06
                        eps_scf_history:                                0.00E+00
                        eps_diis:                                       1.00E-01
                        eps_eigval:                                     1.00E-05
                        --------------------------------------------------------
                        level_shift [a.u.]:                             0.000000
                        --------------------------------------------------------
                        Outer loop SCF in use 
                        No variables optimised in outer loop
                        eps_scf                                         1.00E-06
                        max_scf                                               25
                        No outer loop optimization
                        step_size                                       5.00E-01

 Number of electrons:                                                       7080
 Number of occupied orbitals:                                               3540
 Number of molecular orbitals:                                              3540

 Number of orbital functions:                                              14811
 Number of independent orbital functions:                                  14811

 Extrapolation method: initial_guess


 SCF WAVEFUNCTION OPTIMIZATION

  ----------------------------------- OT ---------------------------------------
  Minimizer      : DIIS                : direct inversion
                                         in the iterative subspace
                                         using   7 DIIS vectors
                                         safer DIIS on
  Preconditioner : FULL_SINGLE_INVERSE : inversion of 
                                         H + eS - 2*(Sc)(c^T*H*c+const)(Sc)^T
  Precond_solver : DEFAULT
  stepsize       :    0.08000000                  energy_gap     :    0.05000000
  eps_taylor     :   0.10000E-15                  max_taylor     :             4
  ----------------------------------- OT ---------------------------------------

  Step     Update method      Time    Convergence         Total energy    Change
  ------------------------------------------------------------------------------
     1 OT DIIS     0.80E-01   12.3     0.01373527    -23530.2549476971 -2.35E+04
     2 OT DIIS     0.80E-01    4.8     0.37026637    -15685.1523775029  7.85E+03
     3 OT DIIS     0.80E-01    4.7     0.07522326    -23265.3243303803 -7.58E+03
     4 OT DIIS     0.80E-01    4.6     0.03776319    -23603.2451270204 -3.38E+02
     5 OT DIIS     0.80E-01    4.6     0.01240141    -23690.5207288698 -8.73E+01
     6 OT DIIS     0.80E-01    4.6     0.00898414    -23720.7706446907 -3.02E+01
     7 OT DIIS     0.80E-01    4.6     0.00506588    -23756.6875449052 -3.59E+01
     8 OT DIIS     0.80E-01    4.5     0.00462719    -23808.9662541740 -5.23E+01
     9 OT DIIS     0.80E-01    4.4     0.00365832    -23819.5261178040 -1.06E+01
    10 OT DIIS     0.80E-01    4.4     0.01170626    -23858.1330488655 -3.86E+01
    11 OT DIIS     0.80E-01    4.4     0.00480718    -23890.7101742646 -3.26E+01
    12 OT DIIS     0.80E-01    4.4     0.00270982    -23904.9197264092 -1.42E+01
    13 OT DIIS     0.80E-01    4.4     0.00446361    -23941.4285022431 -3.65E+01
    14 OT DIIS     0.80E-01    4.4     0.00378145    -23952.0840994026 -1.07E+01
    15 OT DIIS     0.80E-01    4.4     0.00188583    -23962.4367931171 -1.04E+01
    16 OT DIIS     0.80E-01    4.4     0.00251219    -23972.4520754320 -1.00E+01
    17 OT DIIS     0.80E-01    4.3     0.00155486    -23985.4509174179 -1.30E+01
    18 OT DIIS     0.80E-01    4.4     0.00231000    -23993.5873899707 -8.14E+00
    19 OT DIIS     0.80E-01    4.3     0.00183594    -23999.5170757401 -5.93E+00
    20 OT DIIS     0.80E-01    4.4     0.00135675    -24009.7374307480 -1.02E+01
    21 OT DIIS     0.80E-01    4.3     0.00203019    -24015.8800318800 -6.14E+00
    22 OT DIIS     0.80E-01    4.4     0.00191769    -24019.8793537533 -4.00E+00
    23 OT DIIS     0.80E-01    4.3     0.00168566    -24026.0127795816 -6.13E+00
    24 OT DIIS     0.80E-01    4.4     0.00121870    -24028.4650501898 -2.45E+00
    25 OT DIIS     0.80E-01    4.4     0.00128089    -24030.4080237789 -1.94E+00
    26 OT DIIS     0.80E-01    4.4     0.00128090    -24034.7576589661 -4.35E+00
    27 OT DIIS     0.80E-01    4.4     0.00123048    -24035.9589910483 -1.20E+00
    28 OT DIIS     0.80E-01    4.4     0.00106611    -24036.4897415573 -5.31E-01
    29 OT DIIS     0.80E-01    4.3     0.00133244    -24040.0047388507 -3.51E+00
    30 OT DIIS     0.80E-01    4.3     0.00128388    -24040.4238222109 -4.19E-01
    31 OT DIIS     0.80E-01    4.4     0.00119015    -24041.1136021466 -6.90E-01
    32 OT DIIS     0.80E-01    4.4     0.00095077    -24042.2355154445 -1.12E+00
    33 OT DIIS     0.80E-01    4.3     0.00089588    -24043.4859727985 -1.25E+00
    34 OT DIIS     0.80E-01    4.4     0.00090401    -24045.5851681805 -2.10E+00
    35 OT SD       0.80E-01    4.4     0.00103105    -24047.6156054519 -2.03E+00
    36 OT DIIS     0.80E-01    4.4     0.00232329    -24045.8986079836  1.72E+00
    37 OT DIIS     0.80E-01    4.3     0.00103571    -24049.6567085687 -3.76E+00
    38 OT DIIS     0.80E-01    4.3     0.00097980    -24052.3827231064 -2.73E+00
    39 OT DIIS     0.80E-01    4.3     0.00103949    -24054.1204241328 -1.74E+00
    40 OT DIIS     0.80E-01    4.3     0.00091890    -24054.2484973486 -1.28E-01
    41 OT SD       0.80E-01    4.3     0.00095558    -24057.8632878008 -3.61E+00
    42 OT DIIS     0.80E-01    4.3     0.00316879    -24055.3639443685  2.50E+00
    43 OT DIIS     0.80E-01    4.3     0.00084197    -24058.3848740985 -3.02E+00
    44 OT DIIS     0.80E-01    4.3     0.00066560    -24059.3154092164 -9.31E-01
    45 OT DIIS     0.80E-01    4.3     0.00067419    -24061.5282771973 -2.21E+00
    46 OT DIIS     0.80E-01    4.3     0.00078153    -24063.4258007853 -1.90E+00
    47 OT DIIS     0.80E-01    4.3     0.00080113    -24063.9082348898 -4.82E-01
    48 OT DIIS     0.80E-01    4.3     0.00088236    -24064.5872814276 -6.79E-01
    49 OT DIIS     0.80E-01    4.3     0.00056613    -24065.3643105798 -7.77E-01
    50 OT DIIS     0.80E-01    4.3     0.00066239    -24070.2877938191 -4.92E+00
    51 OT SD       0.80E-01    4.3     0.00126018    -24076.2339417093 -5.95E+00
    52 OT DIIS     0.80E-01    4.3     0.00246673    -24071.5162354797  4.72E+00
    53 OT DIIS     0.80E-01    4.4     0.00075371    -24073.9524599306 -2.44E+00
    54 OT DIIS     0.80E-01    4.4     0.00059609    -24075.6601078268 -1.71E+00
    55 OT DIIS     0.80E-01    4.3     0.00055662    -24077.3202706132 -1.66E+00
    56 OT SD       0.80E-01    4.3     0.00048225    -24077.9846845075 -6.64E-01
    57 OT DIIS     0.80E-01    4.3     0.00182377    -24077.3323214524  6.52E-01
    58 OT DIIS     0.80E-01    4.3     0.00040176    -24078.4031365417 -1.07E+00
    59 OT DIIS     0.80E-01    4.3     0.00038478    -24078.8600289306 -4.57E-01
    60 OT DIIS     0.80E-01    4.3     0.00039075    -24078.9958252140 -1.36E-01

  Leaving inner SCF loop after reaching    60 steps.


  Electronic density on regular grids:      -7079.9999993203        0.0000006797
  Core density on regular grids:             7079.9999995588       -0.0000004412
  Total dipole moment perpendicular to 
  the slab [electrons-Angstroem]:               4.2792287040
  Total charge density on r-space grids:        0.0000002385
  Total charge density g-space grids:           0.0000002385

  Overlap energy of the core charge distribution:               0.00035614219784
  Self energy of the core charge distribution:             -48033.46742924736463
  Core Hamiltonian energy:                                  12375.97469276952506
  Hartree energy:                                           15470.76644323014079
  Exchange-correlation energy:                              -3892.26988810845842

  Total energy:                                            -24078.99582521396223

  outer SCF iter =    1 RMS gradient =   0.39E-03 energy =     -24078.9958252140

  ----------------------------------- OT ---------------------------------------
  Minimizer      : DIIS                : direct inversion
                                         in the iterative subspace
                                         using   7 DIIS vectors
                                         safer DIIS on
  Preconditioner : FULL_SINGLE_INVERSE : inversion of 
                                         H + eS - 2*(Sc)(c^T*H*c+const)(Sc)^T
  Precond_solver : DEFAULT
  stepsize       :    0.08000000                  energy_gap     :    0.05000000
  eps_taylor     :   0.10000E-15                  max_taylor     :             4
  ----------------------------------- OT ---------------------------------------

  Step     Update method      Time    Convergence         Total energy    Change
  ------------------------------------------------------------------------------
     1 OT DIIS     0.80E-01   16.0     0.00112956    -24079.7554514936 -7.60E-01
     2 OT DIIS     0.80E-01    4.7     0.00335691    -24083.3272001132 -3.57E+00
     3 OT DIIS     0.80E-01    4.6     0.00195525    -24084.2939521338 -9.67E-01
     4 OT DIIS     0.80E-01    4.6     0.00109421    -24086.8391853972 -2.55E+00
     5 OT DIIS     0.80E-01    4.5     0.00161732    -24088.5193679181 -1.68E+00
     6 OT DIIS     0.80E-01    4.5     0.00123964    -24090.4172226853 -1.90E+00
     7 OT DIIS     0.80E-01    4.5     0.00125861    -24091.1333528361 -7.16E-01
     8 OT DIIS     0.80E-01    4.5     0.00093770    -24091.6730422216 -5.40E-01
     9 OT DIIS     0.80E-01    4.4     0.00052402    -24092.0859786352 -4.13E-01
    10 OT DIIS     0.80E-01    4.3     0.00060068    -24092.1858603578 -9.99E-02
    11 OT DIIS     0.80E-01    4.4     0.00038886    -24092.4086030747 -2.23E-01
    12 OT DIIS     0.80E-01    4.3     0.00033581    -24092.5286645445 -1.20E-01
    13 OT DIIS     0.80E-01    4.3     0.00030801    -24092.6488644377 -1.20E-01
    14 OT DIIS     0.80E-01    4.4     0.00025853    -24092.7186210554 -6.98E-02
    15 OT DIIS     0.80E-01    4.3     0.00024771    -24092.7686149992 -5.00E-02
    16 OT DIIS     0.80E-01    4.3     0.00022710    -24092.7997111923 -3.11E-02
    17 OT DIIS     0.80E-01    4.3     0.00016519    -24092.8464811594 -4.68E-02
    18 OT DIIS     0.80E-01    4.3     0.00015931    -24092.8709202209 -2.44E-02
    19 OT DIIS     0.80E-01    4.4     0.00012522    -24092.8935791223 -2.27E-02
    20 OT DIIS     0.80E-01    4.3     0.00012259    -24092.9086266963 -1.50E-02
    21 OT DIIS     0.80E-01    4.3     0.00010473    -24092.9187659769 -1.01E-02
    22 OT DIIS     0.80E-01    4.3     0.00008989    -24092.9292367164 -1.05E-02
    23 OT DIIS     0.80E-01    4.4     0.00009441    -24092.9352484323 -6.01E-03
    24 OT DIIS     0.80E-01    4.3     0.00008079    -24092.9433394728 -8.09E-03
    25 OT DIIS     0.80E-01    4.3     0.00007533    -24092.9460888649 -2.75E-03
    26 OT DIIS     0.80E-01    4.3     0.00006974    -24092.9501455263 -4.06E-03
    27 OT DIIS     0.80E-01    4.3     0.00006052    -24092.9532931402 -3.15E-03
    28 OT DIIS     0.80E-01    4.3     0.00005290    -24092.9566889401 -3.40E-03
    29 OT DIIS     0.80E-01    4.3     0.00005186    -24092.9582461798 -1.56E-03
    30 OT DIIS     0.80E-01    4.3     0.00004427    -24092.9601743045 -1.93E-03
    31 OT DIIS     0.80E-01    4.2     0.00004431    -24092.9619556110 -1.78E-03
    32 OT DIIS     0.80E-01    4.3     0.00003959    -24092.9636845345 -1.73E-03
    33 OT DIIS     0.80E-01    4.3     0.00003908    -24092.9651082669 -1.42E-03
    34 OT DIIS     0.80E-01    4.2     0.00003800    -24092.9663685302 -1.26E-03
    35 OT DIIS     0.80E-01    4.4     0.00003584    -24092.9675415594 -1.17E-03
    36 OT DIIS     0.80E-01    4.3     0.00003268    -24092.9690596485 -1.52E-03
    37 OT DIIS     0.80E-01    4.3     0.00003399    -24092.9700700885 -1.01E-03
    38 OT DIIS     0.80E-01    4.3     0.00003144    -24092.9708757463 -8.06E-04
    39 OT DIIS     0.80E-01    4.4     0.00003143    -24092.9718443749 -9.69E-04
    40 OT DIIS     0.80E-01    4.3     0.00002842    -24092.9723825537 -5.38E-04
    41 OT DIIS     0.80E-01    4.3     0.00002723    -24092.9732717246 -8.89E-04
    42 OT DIIS     0.80E-01    4.2     0.00002615    -24092.9737711453 -4.99E-04
    43 OT DIIS     0.80E-01    4.3     0.00002450    -24092.9742394326 -4.68E-04
    44 OT DIIS     0.80E-01    4.3     0.00002174    -24092.9748578183 -6.18E-04
    45 OT DIIS     0.80E-01    4.3     0.00002195    -24092.9754662715 -6.08E-04
    46 OT DIIS     0.80E-01    4.3     0.00002132    -24092.9758834624 -4.17E-04
    47 OT DIIS     0.80E-01    4.4     0.00002154    -24092.9764511270 -5.68E-04
    48 OT DIIS     0.80E-01    4.3     0.00002093    -24092.9766867713 -2.36E-04
    49 OT DIIS     0.80E-01    4.3     0.00002013    -24092.9772894350 -6.03E-04
    50 OT DIIS     0.80E-01    4.3     0.00002020    -24092.9776011247 -3.12E-04
    51 OT DIIS     0.80E-01    4.3     0.00001968    -24092.9778684650 -2.67E-04
    52 OT DIIS     0.80E-01    4.2     0.00001721    -24092.9781313086 -2.63E-04
    53 OT DIIS     0.80E-01    4.2     0.00001656    -24092.9784988114 -3.68E-04
    54 OT DIIS     0.80E-01    4.3     0.00001581    -24092.9787204205 -2.22E-04
    55 OT DIIS     0.80E-01    4.2     0.00001540    -24092.9790157743 -2.95E-04
    56 OT DIIS     0.80E-01    4.3     0.00001509    -24092.9791351899 -1.19E-04
    57 OT DIIS     0.80E-01    4.3     0.00001415    -24092.9794669506 -3.32E-04
    58 OT DIIS     0.80E-01    4.2     0.00001451    -24092.9796885964 -2.22E-04
    59 OT DIIS     0.80E-01    4.3     0.00001479    -24092.9798939844 -2.05E-04
    60 OT DIIS     0.80E-01    4.3     0.00001372    -24092.9800267338 -1.33E-04

  Leaving inner SCF loop after reaching    60 steps.


  Electronic density on regular grids:      -7079.9999993231        0.0000006769
  Core density on regular grids:             7079.9999995588       -0.0000004412
  Total dipole moment perpendicular to 
  the slab [electrons-Angstroem]:               6.1063949608
  Total charge density on r-space grids:        0.0000002358
  Total charge density g-space grids:           0.0000002358

  Overlap energy of the core charge distribution:               0.00035614219784
  Self energy of the core charge distribution:             -48033.46742924736463
  Core Hamiltonian energy:                                  12349.18983563820439
  Hartree energy:                                           15484.13040376442950
  Exchange-correlation energy:                              -3892.83319303127246

  Total energy:                                            -24092.98002673379960

  outer SCF iter =    2 RMS gradient =   0.14E-04 energy =     -24092.9800267338

  ----------------------------------- OT ---------------------------------------
  Minimizer      : DIIS                : direct inversion
                                         in the iterative subspace
                                         using   7 DIIS vectors
                                         safer DIIS on
  Preconditioner : FULL_SINGLE_INVERSE : inversion of 
                                         H + eS - 2*(Sc)(c^T*H*c+const)(Sc)^T
  Precond_solver : DEFAULT
  stepsize       :    0.08000000                  energy_gap     :    0.05000000
  eps_taylor     :   0.10000E-15                  max_taylor     :             4
  ----------------------------------- OT ---------------------------------------

  Step     Update method      Time    Convergence         Total energy    Change
  ------------------------------------------------------------------------------
     1 OT DIIS     0.80E-01   15.2     0.00001691    -24092.9802708465 -2.44E-04
     2 OT DIIS     0.80E-01    4.0     0.00002051    -24092.9810157565 -7.45E-04
     3 OT DIIS     0.80E-01    3.9     0.00001263    -24092.9814221815 -4.06E-04
     4 OT DIIS     0.80E-01    3.9     0.00001342    -24092.9825647331 -1.14E-03
     5 OT DIIS     0.80E-01    3.9     0.00000611    -24092.9832757410 -7.11E-04
     6 OT DIIS     0.80E-01    3.9     0.00000505    -24092.9833794292 -1.04E-04
     7 OT DIIS     0.80E-01    3.9     0.00000483    -24092.9835738618 -1.94E-04
     8 OT DIIS     0.80E-01    3.8     0.00000302    -24092.9837706476 -1.97E-04
     9 OT DIIS     0.80E-01    3.8     0.00000304    -24092.9838015098 -3.09E-05
    10 OT DIIS     0.80E-01    3.7     0.00000191    -24092.9838472208 -4.57E-05
    11 OT DIIS     0.80E-01    3.7     0.00000171    -24092.9838657395 -1.85E-05
    12 OT DIIS     0.80E-01    3.7     0.00000155    -24092.9838898734 -2.41E-05
    13 OT DIIS     0.80E-01    3.7     0.00000130    -24092.9839002815 -1.04E-05
    14 OT DIIS     0.80E-01    3.7     0.00000114    -24092.9839035447 -3.26E-06
    15 OT DIIS     0.80E-01    3.7     0.00000074    -24092.9839074619 -3.92E-06

  *** SCF run converged in    15 steps ***


  Electronic density on regular grids:      -7079.9999993440        0.0000006560
  Core density on regular grids:             7079.9999995588       -0.0000004412
  Total dipole moment perpendicular to 
  the slab [electrons-Angstroem]:               6.1298132439
  Total charge density on r-space grids:        0.0000002148
  Total charge density g-space grids:           0.0000002148

  Overlap energy of the core charge distribution:               0.00035614219784
  Self energy of the core charge distribution:             -48033.46742924736463
  Core Hamiltonian energy:                                  12349.18107440269887
  Hartree energy:                                           15484.13576705714149
  Exchange-correlation energy:                              -3892.83367581660150

  Total energy:                                            -24092.98390746193036

  outer SCF iter =    3 RMS gradient =   0.74E-06 energy =     -24092.9839074619
  outer SCF loop converged in   3 iterations or  135 steps


 ENERGY| Total FORCE_EVAL ( QS ) energy [a.u.]:           -24092.983908982059802

 ATOMIC FORCES in [a.u.]

 # Atom   Kind   Element          X              Y              Z
      1      1      Sr          0.00014398     0.00009660     0.02952811
      2      1      Sr          0.00001513    -0.00010365     0.02954238
      3      1      Sr          0.00001911    -0.00005021     0.02952064
      4      1      Sr         -0.00000108    -0.00004460     0.02951061
      5      1      Sr          0.00000853    -0.00001961     0.02949742
      6      1      Sr         -0.00001410    -0.00006488     0.02948764
      7      1      Sr          0.00011766     0.00006658     0.02950346
      8      1      Sr          0.00001129    -0.00005563     0.02952167
      9      1      Sr         -0.00000094     0.00003594     0.02951623
     10      1      Sr         -0.00005850    -0.00002913     0.02950998
     11      1      Sr         -0.00000507    -0.00001636     0.02949866
     12      1      Sr         -0.00009456    -0.00007408     0.02953593
     13      1      Sr         -0.00009725    -0.00002053     0.02949234
     14      1      Sr          0.00002067     0.00010684     0.02950090
     15      1      Sr         -0.00002957     0.00000477     0.02951968
     16      1      Sr          0.00001899     0.00007913     0.02953106
     17      1      Sr         -0.00008611    -0.00006961     0.02952399
     18      1      Sr          0.00008861     0.00015054     0.02953307
     19      1      Sr         -0.00009320    -0.00004042     0.02954804
     20      1      Sr         -0.00008679    -0.00001008     0.02951981
     21      1      Sr          0.00000323     0.00002502     0.02951541
     22      1      Sr          0.00003066    -0.00004944     0.02951077
     23      1      Sr          0.00008936     0.00008356     0.02953114
     24      1      Sr          0.00041452     0.00036654     0.00261263
     25      1      Sr         -0.00003310    -0.00043966     0.00260966
     26      1      Sr          0.00020569    -0.00010190     0.00244298
     27      1      Sr          0.00006561    -0.00013332     0.00246630
     28      1      Sr         -0.00012221    -0.00014264     0.00232990
     29      1      Sr          0.00001712    -0.00025779     0.00220741
     30      1      Sr          0.00049565     0.00023336     0.00239749
     31      1      Sr         -0.00009644    -0.00026738     0.00250600
     32      1      Sr         -0.00002532     0.00022460     0.00242453
     33      1      Sr         -0.00019222    -0.00004898     0.00239827
     34      1      Sr         -0.00006528    -0.00005451     0.00234980
     35      1      Sr         -0.00026310    -0.00030692     0.00262823
     36      1      Sr         -0.00032231    -0.00005906     0.00227754
     37      1      Sr          0.00008740     0.00043204     0.00231768
     38      1      Sr         -0.00017233    -0.00007190     0.00248851
     39      1      Sr          0.00008270     0.00031902     0.00262577
     40      1      Sr         -0.00028432    -0.00024696     0.00251284
     41      1      Sr          0.00025058     0.00059940     0.00252192
     42      1      Sr         -0.00034070    -0.00016691     0.00267622
     43      1      Sr         -0.00021828     0.00003778     0.00252104
     44      1      Sr          0.00002222     0.00011268     0.00249340
     45      1      Sr          0.00003398    -0.00031744     0.00237706
     46      1      Sr          0.00046338     0.00029378     0.00255275
     47      1      Sr          0.00179499     0.00190930     0.01403600
     48      1      Sr         -0.00123572    -0.00187607     0.01289891
     49      1      Sr          0.00213473    -0.00058012     0.01419735
     50      1      Sr          0.00163665    -0.00028012     0.01368363
     51      1      Sr         -0.00202339    -0.00130231     0.01560406
     52      1      Sr          0.00039003    -0.00179294     0.01386602
     53      1      Sr          0.00411122     0.00179861     0.01363074
     54      1      Sr         -0.00114428    -0.00157749     0.01405584
     55      1      Sr         -0.00068387     0.00174060     0.01485939
     56      1      Sr         -0.00108366    -0.00098737     0.01237563
     57      1      Sr         -0.00064864    -0.00019663     0.01455333
     58      1      Sr         -0.00069280    -0.00159203     0.01345954
     59      1      Sr         -0.00238904    -0.00057457     0.01570615
     60      1      Sr          0.00009419     0.00216754     0.01326734
     61      1      Sr         -0.00115018    -0.00061672     0.01352550
     62      1      Sr          0.00081509     0.00185049     0.01452715
     63      1      Sr         -0.00199980    -0.00113121     0.01241650
     64      1      Sr          0.00068588     0.00375462     0.01430989
     65      1      Sr         -0.00171900    -0.00156800     0.01270774
     66      1      Sr         -0.00051573     0.00031670     0.01483378
     67      1      Sr         -0.00022933     0.00054037     0.01328393
     68      1      Sr         -0.00030208    -0.00172733     0.01368168
     69      1      Sr          0.00414307     0.00178213     0.01418933
     70      2      Hf         -0.01407817     0.18752318    -0.07548821
     71      2      Hf         -0.01402689     0.18754877    -0.07546470
     72      2      Hf         -0.01405135     0.18753991    -0.07551195
     73      2      Hf         -0.01405406     0.18756673    -0.07550523
     74      2      Hf         -0.01410388     0.18753936    -0.07551961
     75      2      Hf         -0.01408016     0.18755952    -0.07546249
     76      2      Hf         -0.01407264     0.18752446    -0.07550556
     77      2      Hf         -0.01403590     0.18755941    -0.07549825
     78      2      Hf         -0.01407979     0.18754641    -0.07553177
     79      2      Hf          0.04835334    -0.18647176     0.03404770
     80      2      Hf          0.04838706    -0.18645516     0.03400085
     81      2      Hf          0.04834562    -0.18648615     0.03401112
     82      2      Hf          0.04833871    -0.18645869     0.03399247
     83      2      Hf          0.04831002    -0.18645932     0.03404539
     84      2      Hf          0.04836014    -0.18643975     0.03402271
     85      2      Hf          0.04835715    -0.18645501     0.03401867
     86      2      Hf          0.04836687    -0.18645257     0.03397827
     87      2      Hf          0.04833219    -0.18648593     0.03400373
     88      2      Hf          0.07851066     0.09219136     0.04418115
     89      2      Hf          0.07856339     0.09223209     0.04417549
     90      2      Hf          0.07853426     0.09220040     0.04414462
     91      2      Hf          0.07853482     0.09222248     0.04415881
     92      2      Hf          0.07847959     0.09219347     0.04417769
     93      2      Hf          0.07852215     0.09222570     0.04419546
     94      2      Hf          0.07849057     0.09220718     0.04418348
     95      2      Hf          0.07853717     0.09224473     0.04416061
     96      2      Hf          0.07848625     0.09220998     0.04415348
     97      2      Hf         -0.07166155    -0.04151973     0.02144945
     98      2      Hf         -0.07160652    -0.04148579     0.02142441
     99      2      Hf         -0.07166446    -0.04151826     0.02139479
    100      2      Hf         -0.07165575    -0.04149929     0.02138111
    101      2      Hf         -0.07169627    -0.04152549     0.02141231
    102      2      Hf         -0.07163276    -0.04148755     0.02140937
    103      2      Hf         -0.07162783    -0.04152005     0.02144023
    104      2      Hf         -0.07160862    -0.04149974     0.02138697
    105      2      Hf         -0.07166115    -0.04154521     0.02139210
    106      2      Hf         -0.02950279     0.14963378    -0.03569256
    107      2      Hf         -0.02934564     0.14970463    -0.03565956
    108      2      Hf         -0.02944956     0.14966651    -0.03583459
    109      2      Hf         -0.02940854     0.14971535    -0.03584636
    110      2      Hf         -0.02955570     0.14966763    -0.03583404
    111      2      Hf         -0.02944776     0.14971356    -0.03571188
    112      2      Hf         -0.02941570     0.14963777    -0.03570699
    113      2      Hf         -0.02933461     0.14970694    -0.03580491
    114      2      Hf         -0.02944918     0.14961808    -0.03589255
    115      2      Hf          0.02360564    -0.14652504     0.03888679
    116      2      Hf          0.02366257    -0.14653218     0.03866944
    117      2      Hf          0.02354232    -0.14656256     0.03875720
    118      2      Hf          0.02355886    -0.14654215     0.03862589
    119      2      Hf          0.02351870    -0.14650997     0.03881679
    120      2      Hf          0.02362865    -0.14649200     0.03870364
    121      2      Hf          0.02366366    -0.14653098     0.03874434
    122      2      Hf          0.02364919    -0.14655972     0.03857259
    123      2      Hf          0.02358252    -0.14660540     0.03874478
    124      2      Hf          0.04112880     0.02654675     0.04002779
    125      2      Hf          0.04127031     0.02664451     0.03991886
    126      2      Hf          0.04113422     0.02652793     0.03989283
    127      2      Hf          0.04114551     0.02662205     0.03986875
    128      2      Hf          0.04101946     0.02654080     0.04001459
    129      2      Hf          0.04116338     0.02665434     0.04001885
    130      2      Hf          0.04114765     0.02660191     0.03996836
    131      2      Hf          0.04120428     0.02665242     0.03986091
    132      2      Hf          0.04107471     0.02655924     0.03986367
    133      2      Hf         -0.03839992    -0.03110383    -0.03971724
    134      2      Hf         -0.03829148    -0.03104497    -0.03986906
    135      2      Hf         -0.03847408    -0.03114758    -0.03994184
    136      2      Hf         -0.03839246    -0.03110367    -0.04001900
    137      2      Hf         -0.03844102    -0.03117912    -0.03988904
    138      2      Hf         -0.03829030    -0.03108138    -0.03986620
    139      2      Hf         -0.03823918    -0.03111264    -0.03975368
    140      2      Hf         -0.03827236    -0.03111690    -0.03996521
    141      2      Hf         -0.03839101    -0.03118700    -0.03984112
    142      2      Hf         -0.02899840     0.14809782    -0.03935293
    143      2      Hf         -0.02861789     0.14836760    -0.03951519
    144      2      Hf         -0.02899328     0.14822112    -0.04008681
    145      2      Hf         -0.02873280     0.14829985    -0.04004274
    146      2      Hf         -0.02908635     0.14812988    -0.03998182
    147      2      Hf         -0.02871277     0.14825501    -0.03968701
    148      2      Hf         -0.02865491     0.14811264    -0.03939933
    149      2      Hf         -0.02851462     0.14825029    -0.03999207
    150      2      Hf         -0.02884147     0.14794002    -0.03976485
    151      2      Hf          0.02872777    -0.14797129     0.04029947
    152      2      Hf          0.02880114    -0.14807874     0.03954937
    153      2      Hf          0.02849428    -0.14825629     0.03996244
    154      2      Hf          0.02860244    -0.14818280     0.03946160
    155      2      Hf          0.02865867    -0.14814649     0.03993921
    156      2      Hf          0.02884649    -0.14805526     0.03970890
    157      2      Hf          0.02900607    -0.14809478     0.03979327
    158      2      Hf          0.02882985    -0.14835198     0.03951649
    159      2      Hf          0.02870679    -0.14824864     0.04008314
    160      2      Hf          0.03825438     0.02753565     0.03679985
    161      2      Hf          0.03863584     0.02776937     0.03630852
    162      2      Hf          0.03807470     0.02753517     0.03647034
    163      2      Hf          0.03825392     0.02763862     0.03614652
    164      2      Hf          0.03790466     0.02762034     0.03665078
    165      2      Hf          0.03838496     0.02784629     0.03648666
    166      2      Hf          0.03846567     0.02768471     0.03647533
    167      2      Hf          0.03847963     0.02777894     0.03611675
    168      2      Hf          0.03816608     0.02734759     0.03634007
    169      2      Hf         -0.03848756    -0.02749380    -0.03601977
    170      2      Hf         -0.03815264    -0.02748633    -0.03648450
    171      2      Hf         -0.03880620    -0.02773446    -0.03646682
    172      2      Hf         -0.03839421    -0.02772194    -0.03678741
    173      2      Hf         -0.03830804    -0.02775342    -0.03615000
    174      2      Hf         -0.03807246    -0.02751195    -0.03636122
    175      2      Hf         -0.03788124    -0.02750808    -0.03592168
    176      2      Hf         -0.03831660    -0.02768457    -0.03650551
    177      2      Hf         -0.03854951    -0.02773768    -0.03612090
    178      2      Hf         -0.02489889     0.14710984    -0.03759156
    179      2      Hf         -0.02311062     0.14726683    -0.03836643
    180      2      Hf         -0.02453442     0.14638909    -0.03955110
    181      2      Hf         -0.02353176     0.14688722    -0.03956160
    182      2      Hf         -0.02387336     0.14603199    -0.03799625
    183      2      Hf         -0.02349824     0.14684883    -0.03879572
    184      2      Hf         -0.02289066     0.14674057    -0.03680628
    185      2      Hf         -0.02323596     0.14651649    -0.03974389
    186      2      Hf         -0.02452135     0.14667628    -0.03807981
    187      2      Hf          0.02900563    -0.14869902     0.03703956
    188      2      Hf          0.02954289    -0.14977421     0.03477883
    189      2      Hf          0.02820271    -0.14963041     0.03716368
    190      2      Hf          0.02902539    -0.15032001     0.03531911
    191      2      Hf          0.02958329    -0.14957090     0.03610588
    192      2      Hf          0.02944252    -0.14908208     0.03585906
    193      2      Hf          0.03040387    -0.14958652     0.03556276
    194      2      Hf          0.02881486    -0.15015933     0.03699216
    195      2      Hf          0.02888894    -0.14987177     0.03769900
    196      2      Hf          0.03829903     0.03085085     0.04116293
    197      2      Hf          0.03908812     0.03141451     0.03897174
    198      2      Hf          0.03774768     0.03105087     0.03919313
    199      2      Hf          0.03834943     0.03125496     0.03841685
    200      2      Hf          0.03798719     0.03103004     0.03944661
    201      2      Hf          0.03874510     0.03113050     0.03961880
    202      2      Hf          0.03936807     0.03108100     0.03952060
    203      2      Hf          0.03890270     0.03111671     0.03843945
    204      2      Hf          0.03838247     0.03056958     0.04000890
    205      2      Hf         -0.04139346    -0.02673600    -0.03934223
    206      2      Hf         -0.04044612    -0.02638952    -0.03979418
    207      2      Hf         -0.04264242    -0.02736570    -0.04058277
    208      2      Hf         -0.04139350    -0.02806101    -0.04018633
    209      2      Hf         -0.04034256    -0.02729445    -0.03901767
    210      2      Hf         -0.04053652    -0.02619881    -0.04059054
    211      2      Hf         -0.03958942    -0.02608652    -0.03829560
    212      2      Hf         -0.04212819    -0.02666589    -0.04081397
    213      2      Hf         -0.04210098    -0.02789712    -0.03870462
    214      2      Hf         -0.04681472     0.18823257    -0.03858298
    215      2      Hf         -0.05040010     0.18513257    -0.03800686
    216      2      Hf         -0.04700320     0.18127289    -0.04209282
    217      2      Hf         -0.05490002     0.18249623    -0.03937448
    218      2      Hf         -0.04333040     0.18131183    -0.04366821
    219      2      Hf         -0.03930882     0.18387359    -0.02866139
    220      2      Hf         -0.04336468     0.18246494    -0.04248475
    221      2      Hf         -0.04187940     0.17865939    -0.03398679
    222      2      Hf         -0.05376580     0.18291332    -0.04506328
    223      2      Hf          0.01628758    -0.17555039     0.06997662
    224      2      Hf          0.01559858    -0.18544657     0.06345349
    225      2      Hf          0.01486883    -0.18843397     0.06354721
    226      2      Hf          0.01040307    -0.18377002     0.06673204
    227      2      Hf          0.01795185    -0.18309809     0.06495328
    228      2      Hf          0.01760001    -0.18368340     0.07708101
    229      2      Hf          0.01953968    -0.18292941     0.06336573
    230      2      Hf          0.01579329    -0.19210915     0.07038222
    231      2      Hf          0.01247277    -0.17790835     0.06555814
    232      2      Hf          0.06799172     0.04625132    -0.01275346
    233      2      Hf          0.07244001     0.04251838    -0.01854237
    234      2      Hf          0.05993280     0.02617019    -0.01338656
    235      2      Hf          0.06587329     0.03592657    -0.01616781
    236      2      Hf          0.06951373     0.03723230    -0.01603871
    237      2      Hf          0.06849448     0.04214283    -0.01109990
    238      2      Hf          0.07758973     0.04473322    -0.01893088
    239      2      Hf          0.06337708     0.02623799    -0.01325737
    240      2      Hf          0.06555628     0.03696454    -0.01468818
    241      2      Hf         -0.06781735    -0.07748979    -0.04343872
    242      2      Hf         -0.08592926    -0.07739166    -0.03317495
    243      2      Hf         -0.07324379    -0.08650608    -0.05457762
    244      2      Hf         -0.08445266    -0.08017145    -0.04071157
    245      2      Hf         -0.06666142    -0.08283295    -0.05435437
    246      2      Hf         -0.06578270    -0.08923691    -0.03953562
    247      2      Hf         -0.07429176    -0.07845413    -0.05033249
    248      2      Hf         -0.07407173    -0.09077265    -0.05028253
    249      2      Hf         -0.07679778    -0.07468481    -0.05229899
    250      3      Ti          0.00032999    -0.00009613    -0.01474106
    251      3      Ti          0.00001161    -0.00022306    -0.01570945
    252      3      Ti         -0.00007025    -0.00001111    -0.01540686
    253      3      Ti         -0.00005167    -0.00011440    -0.01554642
    254      3      Ti          0.00025112     0.00026745    -0.01577717
    255      3      Ti          0.00006958     0.00008950    -0.01624021
    256      3      Ti          0.00014761     0.00011987    -0.01518605
    257      3      Ti          0.00004703     0.00010997    -0.01559937
    258      3      Ti         -0.00022969     0.00008727    -0.01491017
    259      3      Ti         -0.00012134    -0.00022447    -0.01539181
    260      3      Ti          0.00022551     0.00012763    -0.01572538
    261      3      Ti         -0.00030433    -0.00009323    -0.01541441
    262      3      Ti         -0.00020304     0.00017254    -0.01567789
    263      3      Ti          0.00010017     0.00007881    -0.01483511
    264      3      Ti          0.00009707     0.00008198    -0.01539351
    265      3      Ti         -0.00012763    -0.00006445    -0.01453233
    266      3      Ti         -0.00033825    -0.00025500    -0.01563128
    267      3      Ti          0.00019107     0.00017480    -0.01418198
    268      3      Ti         -0.00009896    -0.00024966    -0.01503079
    269      3      Ti         -0.00014461    -0.00007087    -0.01511750
    270      3      Ti          0.00001984    -0.00017515    -0.01530691
    271      3      Ti          0.00020662     0.00007627    -0.01603124
    272      3      Ti         -0.00001222     0.00017384    -0.01469078
    273      3      Ti          0.00056014    -0.00078333     0.00139225
    274      3      Ti         -0.00025042    -0.00086433    -0.00433093
    275      3      Ti         -0.00001345     0.00010254    -0.00245880
    276      3      Ti          0.00029122    -0.00026396    -0.00208039
    277      3      Ti          0.00048317     0.00129748    -0.00324312
    278      3      Ti          0.00014547     0.00032334    -0.00713946
    279      3      Ti          0.00088592     0.00060899    -0.00056491
    280      3      Ti          0.00005872     0.00055564    -0.00231601
    281      3      Ti         -0.00099144     0.00041015     0.00024712
    282      3      Ti         -0.00016861    -0.00071185    -0.00295420
    283      3      Ti          0.00120173     0.00038564    -0.00264840
    284      3      Ti         -0.00084150    -0.00030831    -0.00166841
    285      3      Ti         -0.00109367     0.00092556    -0.00265426
    286      3      Ti          0.00043036     0.00019191    -0.00044821
    287      3      Ti          0.00091049     0.00013897    -0.00195557
    288      3      Ti         -0.00077524    -0.00018736     0.00253906
    289      3      Ti         -0.00151808    -0.00126015    -0.00279829
    290      3      Ti          0.00055984     0.00042303     0.00296146
    291      3      Ti          0.00004274    -0.00093605    -0.00113548
    292      3      Ti         -0.00045702    -0.00013936    -0.00014706
    293      3      Ti         -0.00027225    -0.00105828    -0.00094576
    294      3      Ti          0.00053095     0.00027154    -0.00647395
    295      3      Ti          0.00030118     0.00073157     0.00121618
    296      3      Ti         -0.01446425     0.00628463    -0.01739053
    297      3      Ti         -0.00716139     0.00234282    -0.05182036
    298      3      Ti         -0.01059851    -0.00637972    -0.03104468
    299      3      Ti          0.02902125     0.00390867    -0.03813553
    300      3      Ti          0.00059442     0.00262277    -0.05375166
    301      3      Ti         -0.01476568    -0.00598758    -0.04973483
    302      3      Ti          0.01989267     0.00070587    -0.03033837
    303      3      Ti          0.01513211     0.00771624    -0.05225006
    304      3      Ti         -0.01370188    -0.02404217    -0.00875758
    305      3      Ti          0.01674508     0.01661813    -0.00739727
    306      3      Ti         -0.00112114    -0.01308392    -0.05215751
    307      3      Ti          0.02321879     0.00782313    -0.04556792
    308      3      Ti         -0.01597067    -0.01116734    -0.04403569
    309      3      Ti          0.01220824     0.00656714     0.02203687
    310      3      Ti          0.01099898     0.00807501    -0.04211837
    311      3      Ti         -0.02390632    -0.00692948    -0.00586484
    312      3      Ti         -0.01188808     0.01185884    -0.04444587
    313      3      Ti          0.00162305    -0.01522658     0.02619331
    314      3      Ti          0.01675351     0.01627923    -0.01819456
    315      3      Ti         -0.01787069    -0.01727060    -0.02358282
    316      3      Ti         -0.01255090     0.01183282    -0.03169041
    317      3      Ti         -0.00859104    -0.00310792    -0.05403705
    318      3      Ti          0.00353819    -0.00246925    -0.02110558
    319      4      O          -0.00104442    -0.00080740    -0.00034572
    320      4      O           0.00017440     0.00051530    -0.00046391
    321      4      O          -0.00037208    -0.00004554    -0.00038163
    322      4      O           0.00103356    -0.00019479    -0.00035972
    323      4      O          -0.00033994     0.00117368    -0.00031481
    324      4      O          -0.00003299    -0.00085779    -0.00021159
    325      4      O          -0.00067283     0.00013119    -0.00033570
    326      4      O           0.00000493     0.00000659    -0.00040467
    327      4      O           0.00041294    -0.00053405    -0.00045286
    328      4      O           0.00033577     0.00117491    -0.00036254
    329      4      O           0.00023652    -0.00027318    -0.00039230
    330      4      O           0.00049319    -0.00103385    -0.00044435
    331      4      O          -0.00082387     0.00035154    -0.00036234
    332      4      O           0.00027565    -0.00012629    -0.00041529
    333      4      O          -0.00009182    -0.00027081    -0.00047070
    334      4      O           0.00065414     0.00040257    -0.00041703
    335      4      O           0.00004794     0.00064699    -0.00050537
    336      4      O           0.00013755    -0.00135229    -0.00050316
    337      4      O          -0.00100481     0.00010116    -0.00051249
    338      4      O           0.00052173     0.00029290    -0.00048533
    339      4      O          -0.00038403    -0.00008881    -0.00043530
    340      4      O           0.00114524     0.00017277    -0.00029128
    341      4      O          -0.00069832     0.00062436    -0.00042954
    342      4      O          -0.00004707    -0.00014774    -0.00064041
    343      4      O          -0.00100769    -0.00039946    -0.00039896
    344      4      O           0.00080333     0.00035953    -0.00043775
    345      4      O          -0.00032412     0.00077702    -0.00042063
    346      4      O           0.00088189    -0.00092278    -0.00027402
    347      4      O          -0.00041476     0.00034035    -0.00031037
    348      4      O          -0.00070766    -0.00073775    -0.00048443
    349      4      O           0.00032533     0.00011603    -0.00037174
    350      4      O           0.00016244     0.00080314    -0.00046199
    351      4      O           0.00079795    -0.00070389    -0.00040269
    352      4      O          -0.00074884     0.00052204    -0.00022792
    353      4      O          -0.00056672     0.00074497    -0.00040272
    354      4      O           0.00012105    -0.00101445    -0.00027976
    355      4      O          -0.00031002    -0.00017695    -0.00049932
    356      4      O           0.00055038     0.00074540    -0.00036747
    357      4      O           0.00040860    -0.00037391    -0.00058482
    358      4      O           0.00004761     0.00009893    -0.00023994
    359      4      O          -0.00087284     0.00073250    -0.00059580
    360      4      O           0.00043233    -0.00069910    -0.00046385
    361      4      O          -0.00065537    -0.00041556    -0.00040364
    362      4      O           0.00078568     0.00065626    -0.00045543
    363      4      O          -0.00033012     0.00029286    -0.00037413
    364      4      O           0.00066727    -0.00059022    -0.00049198
    365      4      O          -0.00106988     0.00031622    -0.01490271
    366      4      O           0.00037093     0.00012135    -0.01468709
    367      4      O          -0.00011062    -0.00029587    -0.01476776
    368      4      O           0.00084840     0.00062733    -0.01462585
    369      4      O          -0.00027907     0.00028740    -0.01467317
    370      4      O          -0.00117525    -0.00007207    -0.01449742
    371      4      O           0.00041621     0.00013721    -0.01481072
    372      4      O          -0.00046489    -0.00019444    -0.01470231
    373      4      O           0.00121591     0.00002532    -0.01483616
    374      4      O          -0.00044885     0.00099649    -0.01476115
    375      4      O           0.00029986    -0.00124633    -0.01462752
    376      4      O          -0.00075354    -0.00057070    -0.01465817
    377      4      O           0.00017881     0.00026098    -0.01469638
    378      4      O          -0.00039762    -0.00008254    -0.01490740
    379      4      O           0.00096088    -0.00031806    -0.01474240
    380      4      O          -0.00032771     0.00122843    -0.01493853
    381      4      O           0.00056789    -0.00087386    -0.01470175
    382      4      O          -0.00022553    -0.00112748    -0.01500372
    383      4      O          -0.00042716     0.00044662    -0.01486290
    384      4      O           0.00003359     0.00001910    -0.01482125
    385      4      O           0.00044686    -0.00034324    -0.01478023
    386      4      O           0.00012304     0.00106020    -0.01453076
    387      4      O           0.00021723    -0.00039611    -0.01495549
    388      4      O          -0.00151152    -0.00106767    -0.00221575
    389      4      O           0.00093148     0.00152682    -0.00183725
    390      4      O          -0.00044967    -0.00008663    -0.00151634
    391      4      O           0.00085344    -0.00020092    -0.00149070
    392      4      O          -0.00035249     0.00096523    -0.00179548
    393      4      O           0.00063467    -0.00005566    -0.00132530
    394      4      O          -0.00144839    -0.00079086    -0.00124004
    395      4      O          -0.00010194    -0.00011577    -0.00181528
    396      4      O           0.00027017    -0.00110044    -0.00210504
    397      4      O           0.00076868     0.00156424    -0.00184217
    398      4      O          -0.00003904    -0.00031788    -0.00163352
    399      4      O           0.00067202    -0.00071060    -0.00189619
    400      4      O          -0.00047050     0.00034071    -0.00189219
    401      4      O           0.00021215    -0.00049416    -0.00172967
    402      4      O          -0.00014444    -0.00026591    -0.00197562
    403      4      O           0.00009098    -0.00006112    -0.00250034
    404      4      O           0.00102428     0.00172585    -0.00201998
    405      4      O          -0.00058622    -0.00251641    -0.00217663
    406      4      O          -0.00062727     0.00059137    -0.00234902
    407      4      O           0.00038768     0.00044259    -0.00218557
    408      4      O          -0.00012145     0.00034378    -0.00195453
    409      4      O           0.00170871     0.00092962    -0.00152714
    410      4      O          -0.00154255    -0.00046482    -0.00155215
    411      4      O          -0.00031734     0.00007754    -0.00259503
    412      4      O          -0.00138481     0.00008305    -0.00145630
    413      4      O           0.00052839     0.00038179    -0.00206168
    414      4      O          -0.00049757     0.00108086    -0.00205152
    415      4      O           0.00125132    -0.00134001    -0.00123090
    416      4      O          -0.00119139     0.00057503    -0.00109269
    417      4      O          -0.00113902    -0.00057093    -0.00240892
    418      4      O           0.00062686     0.00003833    -0.00150597
    419      4      O           0.00067985     0.00047894    -0.00198430
    420      4      O           0.00048120    -0.00039114    -0.00172340
    421      4      O          -0.00091076     0.00035670    -0.00152108
    422      4      O          -0.00006848     0.00079499    -0.00183099
    423      4      O           0.00095012    -0.00164382    -0.00118913
    424      4      O          -0.00059829    -0.00007963    -0.00223405
    425      4      O           0.00035300     0.00069189    -0.00159830
    426      4      O           0.00105204    -0.00066536    -0.00235272
    427      4      O           0.00030068     0.00025215    -0.00158551
    428      4      O          -0.00079795     0.00058112    -0.00276077
    429      4      O           0.00042027    -0.00056406    -0.00184286
    430      4      O          -0.00005056    -0.00080842    -0.00187116
    431      4      O           0.00071820     0.00082069    -0.00214357
    432      4      O          -0.00105589     0.00062457    -0.00113886
    433      4      O           0.00061077    -0.00074142    -0.00280403
    434      4      O          -0.00103627     0.00040443     0.00287609
    435      4      O           0.00039937     0.00021474     0.00474556
    436      4      O          -0.00007714    -0.00031752     0.00405707
    437      4      O           0.00067161     0.00057492     0.00425773
    438      4      O          -0.00030920     0.00013740     0.00472809
    439      4      O          -0.00105790    -0.00011249     0.00551365
    440      4      O           0.00025718     0.00006987     0.00362685
    441      4      O          -0.00045892    -0.00024996     0.00448493
    442      4      O           0.00121208    -0.00005424     0.00304897
    443      4      O          -0.00041996     0.00101255     0.00389512
    444      4      O           0.00014604    -0.00114090     0.00454932
    445      4      O          -0.00058920    -0.00047479     0.00417766
    446      4      O           0.00029299     0.00014496     0.00445992
    447      4      O          -0.00041261    -0.00005246     0.00276545
    448      4      O           0.00079663    -0.00028484     0.00408027
    449      4      O          -0.00019468     0.00115420     0.00244615
    450      4      O           0.00070921    -0.00068354     0.00443695
    451      4      O          -0.00026393    -0.00104976     0.00166032
    452      4      O          -0.00045219     0.00051793     0.00342671
    453      4      O           0.00007609     0.00002528     0.00344968
    454      4      O           0.00049953    -0.00019359     0.00382483
    455      4      O           0.00007174     0.00090769     0.00529721
    456      4      O           0.00015648    -0.00046991     0.00286766
    457      4      O          -0.00070322    -0.00739234    -0.00433698
    458      4      O           0.00958985     0.00852463     0.00788198
    459      4      O          -0.00472282    -0.00684200     0.00845502
    460      4      O          -0.00079554    -0.00173508     0.01812704
    461      4      O           0.00114372     0.00714043    -0.00598541
    462      4      O           0.00139436    -0.00107854     0.00248767
    463      4      O          -0.00503013    -0.00443630     0.01658170
    464      4      O           0.00766971     0.00934379     0.00514001
    465      4      O          -0.01497818    -0.00995037    -0.00897350
    466      4      O          -0.00462844    -0.00303078     0.01349722
    467      4      O           0.01005872     0.00243506    -0.03409989
    468      4      O           0.00488166     0.00536142     0.01614354
    469      4      O          -0.01051144     0.00059454    -0.01158557
    470      4      O          -0.00835380    -0.00636174     0.00555329
    471      4      O           0.01677511     0.02538239    -0.01133210
    472      4      O           0.00156477    -0.00518641    -0.01016529
    473      4      O           0.00426778     0.00403360     0.01079741
    474      4      O          -0.01170511    -0.01089792    -0.00092482
    475      4      O           0.00433070     0.01070793     0.01289285
    476      4      O          -0.00021873    -0.01187744    -0.02002003
    477      4      O          -0.00118664    -0.00590840     0.00574838
    478      4      O           0.00990440     0.00749667     0.00368572
    479      4      O          -0.00609214    -0.00601365     0.01469326
    480      4      O          -0.00693458     0.00171078    -0.00115654
    481      4      O          -0.00844496     0.00061039     0.01243919
    482      4      O           0.00458068     0.01077858     0.00100528
    483      4      O          -0.00623976    -0.00382452    -0.01455177
    484      4      O          -0.00078447    -0.00340449     0.01239791
    485      4      O           0.00199698     0.00231571     0.01611721
    486      4      O          -0.01266629     0.00043793    -0.03303560
    487      4      O          -0.00448391    -0.00524078     0.00114121
    488      4      O           0.01774065    -0.00136499    -0.00878618
    489      4      O           0.00722066    -0.00726985     0.00561790
    490      4      O           0.00191337     0.00036519     0.01537707
    491      4      O          -0.00586527    -0.00023064    -0.00722332
    492      4      O           0.00728699     0.00219661     0.00680651
    493      4      O           0.00636455    -0.00765281    -0.00184106
    494      4      O           0.00333945    -0.00212036     0.01507321
    495      4      O           0.00060918     0.00358510    -0.00127140
    496      4      O          -0.00796943     0.00085838     0.00908483
    497      4      O           0.01347059    -0.00822856    -0.01102007
    498      4      O           0.00577600    -0.00656029     0.01119303
    499      4      O           0.00270431     0.00372597     0.00864801
    500      4      O          -0.00979192     0.00269936     0.00414241
    501      4      O          -0.00590256     0.00215848     0.01624713
    502      4      O          -0.00681597     0.01567008    -0.02563011
    503      4      O          -0.00006501     0.00110105     0.00926499
    504      4      O           0.00115707     0.00026889     0.01804730
    505      4      O           0.00086707    -0.00090435     0.01481391
    506      4      O          -0.00119939     0.00006468     0.01425584
    507      4      O          -0.00030362     0.00018927     0.01576651
    508      4      O           0.00008510     0.00000999     0.02141936
    509      4      O          -0.00126480     0.00075167     0.01198243
    510      4      O          -0.00159286    -0.00070648     0.01486991
    511      4      O           0.00235464    -0.00021584     0.00912395
    512      4      O          -0.00218106    -0.00072679     0.01506227
    513      4      O           0.00082969     0.00042385     0.01447378
    514      4      O          -0.00261434    -0.00145195     0.01419186
    515      4      O           0.00120296     0.00045965     0.01435780
    516      4      O          -0.00005733     0.00103104     0.00900643
    517      4      O           0.00064167     0.00011831     0.01396012
    518      4      O           0.00024103     0.00226495     0.00662725
    519      4      O           0.00145434    -0.00151677     0.01527890
    520      4      O           0.00074188    -0.00071866     0.00284108
    521      4      O          -0.00183740    -0.00096320     0.01274227
    522      4      O           0.00028647     0.00070725     0.01067890
    523      4      O           0.00135044    -0.00064257     0.01281185
    524      4      O           0.00090126     0.00173122     0.02099347
    525      4      O          -0.00010712    -0.00012262     0.00962074
    526      4      O          -0.01038269     0.12097905     0.00297062
    527      4      O          -0.01040877     0.12098059     0.00297897
    528      4      O          -0.01037506     0.12098898     0.00297971
    529      4      O          -0.01036880     0.12097486     0.00298650
    530      4      O          -0.01034924     0.12096479     0.00297599
    531      4      O          -0.01038814     0.12096384     0.00298016
    532      4      O          -0.01039382     0.12097629     0.00297660
    533      4      O          -0.01039864     0.12097870     0.00298696
    534      4      O          -0.01037352     0.12099248     0.00298113
    535      4      O           0.00509016    -0.09476653     0.03137730
    536      4      O           0.00505651    -0.09477147     0.03137497
    537      4      O           0.00506877    -0.09477707     0.03138617
    538      4      O           0.00507602    -0.09479129     0.03138551
    539      4      O           0.00511067    -0.09478570     0.03138714
    540      4      O           0.00508770    -0.09478557     0.03137769
    541      4      O           0.00509826    -0.09477398     0.03138302
    542      4      O           0.00507182    -0.09478710     0.03138329
    543      4      O           0.00510177    -0.09479050     0.03138912
    544      4      O          -0.01937524    -0.01503796    -0.02338778
    545      4      O          -0.01938891    -0.01506054    -0.02337264
    546      4      O          -0.01937108    -0.01504120    -0.02336989
    547      4      O          -0.01937390    -0.01505282    -0.02337139
    548      4      O          -0.01936552    -0.01503990    -0.02338563
    549      4      O          -0.01938333    -0.01505987    -0.02338230
    550      4      O          -0.01937517    -0.01506097    -0.02337725
    551      4      O          -0.01937820    -0.01506209    -0.02336770
    552      4      O          -0.01936235    -0.01504142    -0.02337561
    553      4      O          -0.01579625    -0.02513853    -0.01880823
    554      4      O          -0.01581953    -0.02515835    -0.01880886
    555      4      O          -0.01581768    -0.02515433    -0.01875201
    556      4      O          -0.01582446    -0.02516583    -0.01874510
    557      4      O          -0.01580024    -0.02514753    -0.01875984
    558      4      O          -0.01580543    -0.02515471    -0.01879649
    559      4      O          -0.01581062    -0.02514084    -0.01880009
    560      4      O          -0.01583266    -0.02516325    -0.01875864
    561      4      O          -0.01581733    -0.02514266    -0.01873558
    562      4      O           0.01559865     0.01114266     0.03089952
    563      4      O           0.01559842     0.01114323     0.03090890
    564      4      O           0.01561826     0.01115740     0.03091295
    565      4      O           0.01562803     0.01114531     0.03091435
    566      4      O           0.01562072     0.01113970     0.03090012
    567      4      O           0.01560144     0.01113066     0.03090202
    568      4      O           0.01560462     0.01112904     0.03090335
    569      4      O           0.01561922     0.01114003     0.03091524
    570      4      O           0.01562914     0.01114854     0.03091067
    571      4      O          -0.02201867     0.00836482    -0.03765619
    572      4      O          -0.02203993     0.00835061    -0.03769720
    573      4      O          -0.02204501     0.00835409    -0.03764129
    574      4      O          -0.02203557     0.00834310    -0.03764758
    575      4      O          -0.02201242     0.00835774    -0.03762193
    576      4      O          -0.02201378     0.00835405    -0.03767880
    577      4      O          -0.02202321     0.00836864    -0.03764968
    578      4      O          -0.02204520     0.00834997    -0.03766265
    579      4      O          -0.02203520     0.00836257    -0.03761212
    580      4      O          -0.00262846    -0.04562750     0.01615660
    581      4      O          -0.00265803    -0.04564669     0.01615671
    582      4      O          -0.00263653    -0.04562930     0.01616196
    583      4      O          -0.00264196    -0.04564298     0.01616137
    584      4      O          -0.00261681    -0.04562614     0.01616151
    585      4      O          -0.00262953    -0.04564091     0.01615457
    586      4      O          -0.00264689    -0.04563061     0.01616193
    587      4      O          -0.00265961    -0.04564529     0.01616318
    588      4      O          -0.00262914    -0.04562498     0.01616271
    589      4      O          -0.02904576    -0.00548050    -0.02598264
    590      4      O          -0.02907422    -0.00550289    -0.02595535
    591      4      O          -0.02904410    -0.00547805    -0.02594566
    592      4      O          -0.02904428    -0.00549433    -0.02594238
    593      4      O          -0.02902170    -0.00548009    -0.02597877
    594      4      O          -0.02905698    -0.00549943    -0.02597567
    595      4      O          -0.02904139    -0.00549535    -0.02596095
    596      4      O          -0.02905679    -0.00550253    -0.02593914
    597      4      O          -0.02902419    -0.00547835    -0.02594104
    598      4      O          -0.03677052     0.11422355    -0.01137562
    599      4      O          -0.03681432     0.11423733    -0.01133331
    600      4      O          -0.03670474     0.11423521    -0.01134160
    601      4      O          -0.03673147     0.11422486    -0.01131526
    602      4      O          -0.03670937     0.11420673    -0.01134990
    603      4      O          -0.03680196     0.11421598    -0.01133597
    604      4      O          -0.03685078     0.11424388    -0.01135683
    605      4      O          -0.03682003     0.11426319    -0.01131901
    606      4      O          -0.03677107     0.11426780    -0.01135608
    607      4      O           0.03527978    -0.11601538     0.01178463
    608      4      O           0.03517959    -0.11602912     0.01177750
    609      4      O           0.03525650    -0.11602986     0.01181028
    610      4      O           0.03525255    -0.11606042     0.01181516
    611      4      O           0.03534752    -0.11604900     0.01181484
    612      4      O           0.03526923    -0.11605721     0.01179022
    613      4      O           0.03525266    -0.11601034     0.01179179
    614      4      O           0.03520967    -0.11604359     0.01180792
    615      4      O           0.03528376    -0.11602361     0.01182480
    616      4      O           0.00082280     0.01683944     0.01287873
    617      4      O           0.00079611     0.01680266     0.01296620
    618      4      O           0.00083732     0.01685386     0.01292805
    619      4      O           0.00083235     0.01682249     0.01296394
    620      4      O           0.00085089     0.01684656     0.01287011
    621      4      O           0.00080820     0.01679824     0.01292006
    622      4      O           0.00081559     0.01681412     0.01292607
    623      4      O           0.00081078     0.01679984     0.01299135
    624      4      O           0.00084446     0.01684566     0.01294552
    625      4      O          -0.00336625    -0.01279618    -0.00595949
    626      4      O          -0.00343588    -0.01287641    -0.00586102
    627      4      O          -0.00341422    -0.01284441    -0.00568679
    628      4      O          -0.00345087    -0.01287386    -0.00566494
    629      4      O          -0.00338452    -0.01280613    -0.00572721
    630      4      O          -0.00343331    -0.01285045    -0.00581938
    631      4      O          -0.00341302    -0.01281042    -0.00592679
    632      4      O          -0.00348131    -0.01287158    -0.00569973
    633      4      O          -0.00340943    -0.01278411    -0.00579201
    634      4      O           0.03686529    -0.01058537     0.05612447
    635      4      O           0.03688700    -0.01054922     0.05619944
    636      4      O           0.03692071    -0.01054622     0.05616724
    637      4      O           0.03694790    -0.01054804     0.05620306
    638      4      O           0.03692172    -0.01059407     0.05612768
    639      4      O           0.03689384    -0.01058721     0.05617333
    640      4      O           0.03687605    -0.01058088     0.05616581
    641      4      O           0.03691412    -0.01054653     0.05622436
    642      4      O           0.03691232    -0.01054732     0.05617548
    643      4      O          -0.03555572     0.01092205    -0.03927356
    644      4      O          -0.03563569     0.01086276    -0.03938535
    645      4      O          -0.03561800     0.01089429    -0.03918498
    646      4      O          -0.03563601     0.01088295    -0.03920930
    647      4      O          -0.03555738     0.01092424    -0.03913556
    648      4      O          -0.03558869     0.01089739    -0.03928046
    649      4      O          -0.03561153     0.01092178    -0.03931000
    650      4      O          -0.03567444     0.01088377    -0.03926198
    651      4      O          -0.03561954     0.01094637    -0.03914443
    652      4      O           0.01976501     0.01038204     0.00747780
    653      4      O           0.01969605     0.01034309     0.00750059
    654      4      O           0.01976471     0.01037435     0.00752742
    655      4      O           0.01973279     0.01035477     0.00753988
    656      4      O           0.01979206     0.01038105     0.00751441
    657      4      O           0.01972351     0.01035105     0.00750330
    658      4      O           0.01971376     0.01037278     0.00748974
    659      4      O           0.01968831     0.01035040     0.00753370
    660      4      O           0.01975003     0.01039992     0.00752741
    661      4      O          -0.01919375    -0.01012148    -0.01409424
    662      4      O          -0.01925878    -0.01016821    -0.01397295
    663      4      O          -0.01915845    -0.01010902    -0.01400352
    664      4      O          -0.01916589    -0.01014314    -0.01392477
    665      4      O          -0.01911763    -0.01012231    -0.01405114
    666      4      O          -0.01921133    -0.01017587    -0.01400461
    667      4      O          -0.01921636    -0.01015135    -0.01401202
    668      4      O          -0.01921758    -0.01016551    -0.01390405
    669      4      O          -0.01914501    -0.01009341    -0.01396752
    670      4      O          -0.03647346     0.11406418    -0.01114933
    671      4      O          -0.03658457     0.11415161    -0.01101015
    672      4      O          -0.03628805     0.11419883    -0.01109529
    673      4      O          -0.03643492     0.11419330    -0.01099429
    674      4      O          -0.03655357     0.11418716    -0.01111433
    675      4      O          -0.03665574     0.11414282    -0.01104906
    676      4      O          -0.03683115     0.11420960    -0.01110399
    677      4      O          -0.03659715     0.11432234    -0.01104442
    678      4      O          -0.03648997     0.11423508    -0.01114634
    679      4      O           0.03471892    -0.11328686     0.01229315
    680      4      O           0.03443806    -0.11339803     0.01231422
    681      4      O           0.03480153    -0.11341020     0.01241927
    682      4      O           0.03462869    -0.11342389     0.01241540
    683      4      O           0.03491788    -0.11339096     0.01241393
    684      4      O           0.03461392    -0.11338640     0.01235807
    685      4      O           0.03451826    -0.11327174     0.01229761
    686      4      O           0.03448832    -0.11337876     0.01240017
    687      4      O           0.03465900    -0.11322249     0.01236265
    688      4      O           0.00580103     0.01415104     0.00546098
    689      4      O           0.00577483     0.01409936     0.00574802
    690      4      O           0.00587524     0.01419209     0.00558192
    691      4      O           0.00587339     0.01415111     0.00575361
    692      4      O           0.00587502     0.01414035     0.00552145
    693      4      O           0.00577217     0.01405286     0.00570318
    694      4      O           0.00577120     0.01409224     0.00566762
    695      4      O           0.00578753     0.01409050     0.00585733
    696      4      O           0.00586812     0.01422534     0.00560396
    697      4      O          -0.00342902    -0.01392816    -0.00739201
    698      4      O          -0.00371833    -0.01405513    -0.00694491
    699      4      O          -0.00358474    -0.01390934    -0.00671190
    700      4      O          -0.00372472    -0.01399595    -0.00653332
    701      4      O          -0.00356395    -0.01377420    -0.00712777
    702      4      O          -0.00372701    -0.01399252    -0.00695867
    703      4      O          -0.00363440    -0.01389141    -0.00751626
    704      4      O          -0.00380008    -0.01398533    -0.00667837
    705      4      O          -0.00347897    -0.01384295    -0.00719725
    706      4      O           0.03375831    -0.01220523     0.03869874
    707      4      O           0.03392220    -0.01207469     0.03892819
    708      4      O           0.03396507    -0.01207828     0.03878849
    709      4      O           0.03404316    -0.01206734     0.03893011
    710      4      O           0.03390592    -0.01219222     0.03876204
    711      4      O           0.03383496    -0.01213633     0.03889669
    712      4      O           0.03377116    -0.01214962     0.03885578
    713      4      O           0.03388682    -0.01198448     0.03899350
    714      4      O           0.03384010    -0.01208816     0.03877846
    715      4      O          -0.03308008     0.01054113    -0.03796610
    716      4      O          -0.03326450     0.01045840    -0.03783624
    717      4      O          -0.03320458     0.01062059    -0.03724636
    718      4      O          -0.03329682     0.01054064    -0.03745541
    719      4      O          -0.03310843     0.01075514    -0.03726400
    720      4      O          -0.03328897     0.01056192    -0.03770814
    721      4      O          -0.03324546     0.01061276    -0.03794082
    722      4      O          -0.03344432     0.01054944    -0.03755407
    723      4      O          -0.03322435     0.01062696    -0.03773977
    724      4      O           0.02010011     0.01108257     0.01545955
    725      4      O           0.01992929     0.01101209     0.01557250
    726      4      O           0.02012425     0.01113513     0.01562739
    727      4      O           0.02000232     0.01107511     0.01567710
    728      4      O           0.02007549     0.01116538     0.01557292
    729      4      O           0.01993598     0.01105598     0.01556663
    730      4      O           0.01989807     0.01108313     0.01548281
    731      4      O           0.01990934     0.01108739     0.01564898
    732      4      O           0.02007272     0.01116041     0.01554909
    733      4      O          -0.02054342    -0.01087845    -0.01455931
    734      4      O          -0.02062288    -0.01096744    -0.01409848
    735      4      O          -0.02026653    -0.01075356    -0.01414495
    736      4      O          -0.02036937    -0.01087070    -0.01393766
    737      4      O          -0.02029491    -0.01083475    -0.01420870
    738      4      O          -0.02058207    -0.01094873    -0.01417348
    739      4      O          -0.02066123    -0.01095966    -0.01424259
    740      4      O          -0.02053324    -0.01085053    -0.01392029
    741      4      O          -0.02043441    -0.01075953    -0.01429689
    742      4      O          -0.03547415     0.11592764    -0.01078467
    743      4      O          -0.03597639     0.11650895    -0.01048934
    744      4      O          -0.03440850     0.11585326    -0.01067980
    745      4      O          -0.03567466     0.11683353    -0.01064261
    746      4      O          -0.03599334     0.11637105    -0.01074769
    747      4      O          -0.03577163     0.11611702    -0.01053068
    748      4      O          -0.03669665     0.11652549    -0.01072301
    749      4      O          -0.03486989     0.11614805    -0.01067848
    750      4      O          -0.03543331     0.11642009    -0.01103426
    751      4      O           0.03612243    -0.11475199     0.01239494
    752      4      O           0.03534765    -0.11485075     0.01263177
    753      4      O           0.03619525    -0.11454288     0.01284196
    754      4      O           0.03570267    -0.11477862     0.01280873
    755      4      O           0.03591138    -0.11422382     0.01262520
    756      4      O           0.03560529    -0.11459387     0.01263397
    757      4      O           0.03505802    -0.11436486     0.01232866
    758      4      O           0.03538222    -0.11446481     0.01278092
    759      4      O           0.03582100    -0.11449093     0.01242104
    760      4      O           0.00379915     0.01247056     0.00401178
    761      4      O           0.00389097     0.01238177     0.00495836
    762      4      O           0.00421839     0.01292850     0.00440967
    763      4      O           0.00410939     0.01261978     0.00501591
    764      4      O           0.00401189     0.01261654     0.00448542
    765      4      O           0.00372026     0.01238966     0.00468517
    766      4      O           0.00366739     0.01226061     0.00471500
    767      4      O           0.00391189     0.01270101     0.00493910
    768      4      O           0.00395579     0.01271525     0.00429343
    769      4      O           0.00061323    -0.01704508    -0.01339661
    770      4      O           0.00032598    -0.01711260    -0.01403937
    771      4      O           0.00065847    -0.01707774    -0.01258894
    772      4      O           0.00049221    -0.01678089    -0.01222483
    773      4      O           0.00048666    -0.01676853    -0.01467516
    774      4      O           0.00002327    -0.01713976    -0.01369263
    775      4      O           0.00018904    -0.01696408    -0.01600368
    776      4      O           0.00005218    -0.01708953    -0.01298358
    777      4      O           0.00069384    -0.01671398    -0.01284276
    778      4      O           0.03521140    -0.01106985     0.04018235
    779      4      O           0.03582402    -0.01060085     0.04095829
    780      4      O           0.03570723    -0.01067513     0.04029910
    781      4      O           0.03582345    -0.01048985     0.04080625
    782      4      O           0.03541300    -0.01082382     0.04057371
    783      4      O           0.03543219    -0.01079338     0.04078565
    784      4      O           0.03525989    -0.01066772     0.04083788
    785      4      O           0.03554470    -0.01029443     0.04069856
    786      4      O           0.03520431    -0.01064270     0.04014060
    787      4      O          -0.03560877     0.00948314    -0.05434608
    788      4      O          -0.03635067     0.00933782    -0.05446424
    789      4      O          -0.03631342     0.00963666    -0.05348260
    790      4      O          -0.03647683     0.00953074    -0.05359671
    791      4      O          -0.03604797     0.00984911    -0.05471142
    792      4      O          -0.03672449     0.00944152    -0.05457231
    793      4      O          -0.03614173     0.00949324    -0.05579048
    794      4      O          -0.03707814     0.00944999    -0.05430593
    795      4      O          -0.03581000     0.00964259    -0.05431659
    796      4      O           0.01768341     0.01074381     0.01519119
    797      4      O           0.01694194     0.01077094     0.01547368
    798      4      O           0.01797855     0.01107562     0.01558309
    799      4      O           0.01731068     0.01097206     0.01576121
    800      4      O           0.01729396     0.01102475     0.01525213
    801      4      O           0.01707858     0.01077409     0.01539994
    802      4      O           0.01674577     0.01079894     0.01503265
    803      4      O           0.01741484     0.01105540     0.01559864
    804      4      O           0.01779884     0.01100294     0.01533139
    805      4      O          -0.01845952    -0.01064072    -0.00820232
    806      4      O          -0.01842703    -0.01024330    -0.00557933
    807      4      O          -0.01787854    -0.00960173    -0.00767660
    808      4      O          -0.01809125    -0.00983930    -0.00590575
    809      4      O          -0.01871195    -0.01021473    -0.00727505
    810      4      O          -0.01841260    -0.01000288    -0.00701444
    811      4      O          -0.01910535    -0.01039291    -0.00619353
    812      4      O          -0.01788233    -0.00896521    -0.00643055
    813      4      O          -0.01818787    -0.00980152    -0.00755684
    814      4      O          -0.00534832     0.09519222    -0.02568455
    815      4      O          -0.00892578     0.09743696    -0.02935794
    816      4      O          -0.00500636     0.09749873    -0.02930466
    817      4      O          -0.00710607     0.09605236    -0.02675168
    818      4      O          -0.00882187     0.09622933    -0.02541074
    819      4      O          -0.00422930     0.09370504    -0.02796471
    820      4      O          -0.00895421     0.09610923    -0.02753630
    821      4      O          -0.00229140     0.09509516    -0.03216931
    822      4      O          -0.00518760     0.09523949    -0.02600696
    823      4      O           0.01580941    -0.12266182     0.00061556
    824      4      O           0.01157361    -0.12102808    -0.00087373
    825      4      O           0.01609334    -0.12315815     0.00098265
    826      4      O           0.01446609    -0.12253903     0.00105698
    827      4      O           0.01318227    -0.12291406    -0.00060299
    828      4      O           0.01303946    -0.12215047     0.00057911
    829      4      O           0.01023469    -0.12154093    -0.00218577
    830      4      O           0.01358112    -0.12230468     0.00074453
    831      4      O           0.01627744    -0.12307861     0.00104504
    832      4      O           0.01238900     0.02429315     0.01610831
    833      4      O           0.01374883     0.02468346     0.01940431
    834      4      O           0.01526714     0.02476870     0.01185399
    835      4      O           0.01436361     0.02657586     0.01795648
    836      4      O           0.01385188     0.02350849     0.01651854
    837      4      O           0.01393773     0.02475104     0.01705175
    838      4      O           0.01270618     0.02341103     0.01888909
    839      4      O           0.01561485     0.02658831     0.01243372
    840      4      O           0.01303902     0.02649578     0.01438918
    841      4      O           0.01563243     0.02659433     0.01745193
    842      4      O           0.01329309     0.00894473     0.03870553
    843      4      O           0.02423072     0.00732578     0.03548215
    844      4      O           0.00142550    -0.01095088     0.00860204
    845      4      O           0.03369258     0.00085532     0.02490147
    846      4      O           0.01490566     0.01117124     0.03349890
    847      4      O           0.02855523     0.01865346     0.02690522
    848      4      O           0.01117302     0.01109775     0.03188997
    849      4      O           0.00643447     0.01506310    -0.00483500
    850      4      O           0.02200222    -0.00895635     0.03782325
    851      4      O           0.02243467    -0.00669085     0.04023486
    852      4      O           0.02492407    -0.00956179     0.03678481
    853      4      O           0.02181962    -0.00712517     0.03847356
    854      4      O           0.02223902    -0.00848847     0.03857777
    855      4      O           0.02256753    -0.00891326     0.03871599
    856      4      O           0.02076906    -0.00742242     0.04010917
    857      4      O           0.02392787    -0.00984958     0.03720802
    858      4      O           0.02110102    -0.00892217     0.03677035
    859      4      O          -0.01440488    -0.00719227    -0.01921079
    860      4      O          -0.02024520    -0.00208237    -0.02988222
    861      4      O          -0.01457348    -0.00706570    -0.01781190
    862      4      O          -0.01481698    -0.00385097    -0.01718584
    863      4      O          -0.02328805    -0.01441008    -0.03112554
    864      4      O          -0.01046213    -0.01292704    -0.02823266
    865      4      O          -0.02549968    -0.00745038    -0.04289695
    866      4      O          -0.00862338    -0.00597087    -0.02799687
    867      4      O          -0.01449880    -0.00326148    -0.01719438
    868      4      O           0.02649332     0.00596663     0.02616558
    869      4      O           0.02749581     0.00482354     0.02690814
    870      4      O           0.02685614     0.00680499     0.02679088
    871      4      O           0.02716742     0.00791364     0.02668784
    872      4      O           0.02626042     0.00580500     0.02631985
    873      4      O           0.02602365     0.00497779     0.02793321
    874      4      O           0.02700480     0.00409761     0.02611574
    875      4      O           0.02673715     0.00616158     0.02749500
    876      4      O           0.02738356     0.00814685     0.02512723
    877      4      O           0.00157920     0.04488453    -0.01926497
    878      4      O           0.00494613     0.04240398    -0.00729032
    879      4      O           0.00708303     0.04240382    -0.00540574
    880      4      O           0.00012732     0.03297171    -0.01287057
    881      4      O           0.00690334     0.03975878    -0.00898281
    882      4      O           0.00377481     0.04410881    -0.00963543
    883      4      O           0.00795200     0.04142907    -0.01303035
    884      4      O           0.00630766     0.04098784    -0.00708965
    885      4      O          -0.00041028     0.03468214    -0.02469687
 SUM OF ATOMIC FORCES           0.00444218    -0.00217576     0.13275749     0.13284961

 STRESS| Analytical stress tensor [GPa]
 STRESS|                        x                   y                   z
 STRESS|      x        1.46034928616E+01  -1.84344977601E+01   5.64623635559E-01
 STRESS|      y       -1.84344977601E+01   2.36241135650E+01  -3.92342456462E-01
 STRESS|      z        5.64623635559E-01  -3.92342456462E-01   2.49748458777E+00
 STRESS| 1/3 Trace                                             1.35750303381E+01
 STRESS| Determinant                                           1.12847931857E+01

 STRESS| Eigenvectors and eigenvalues of the analytical stress tensor [GPa]
 STRESS|                        1                   2                   3
 STRESS| Eigenvalues   1.18340638256E-01   2.50257517176E+00   3.81041752043E+01
 STRESS|      x           0.784718284017      0.055499368474     -0.617362968463
 STRESS|      y           0.614000120961      0.066943951549      0.786461924578
 STRESS|      z          -0.084976856792      0.996211989212     -0.018455523828

 -------------------------------------------------------------------------------
 -                                                                             -
 -                                DBCSR STATISTICS                             -
 -                                                                             -
 -------------------------------------------------------------------------------
 COUNTER                                    TOTAL       BLAS       SMM       ACC
 flops    20 x    20 x  1853              4447200       0.0%    100.0%      0.0%     
 flops    14 x    20 x    20              4636800       0.0%    100.0%      0.0%     
 flops    20 x    20 x  1842              8841600       0.0%    100.0%      0.0%     
 flops    20 x    20 x  1855             17808000       0.0%    100.0%      0.0%     
 flops    26 x    20 x    20             31075200       0.0%    100.0%      0.0%     
 flops    13 x    20 x    20             35380800       0.0%    100.0%      0.0%     
 flops    20 x    32 x  1853            391353600       0.0%    100.0%      0.0%     
 flops    32 x    20 x  1853            391353600       0.0%    100.0%      0.0%     
 flops    14 x    32 x    20            408038400       0.0%    100.0%      0.0%     
 flops    14 x    20 x    32            408038400       0.0%    100.0%      0.0%     
 flops    20 x    32 x  1842            778060800       0.0%    100.0%      0.0%     
 flops    32 x    20 x  1842            778060800       0.0%    100.0%      0.0%     
 flops    20 x    32 x  1855           1567104000       0.0%    100.0%      0.0%     
 flops    32 x    20 x  1855           1567104000       0.0%    100.0%      0.0%     
 flops    26 x    32 x    20           2734617600       0.0%    100.0%      0.0%     
 flops    26 x    20 x    32           2734617600       0.0%    100.0%      0.0%     
 flops    13 x    32 x    20           3113510400       0.0%    100.0%      0.0%     
 flops    13 x    20 x    32           3113510400       0.0%    100.0%      0.0%     
 flops    14 x    20 x    14          10637978400       0.0%    100.0%      0.0%     
 flops   144 x   416 x  1853          30636582912       0.0%    100.0%      0.0%     
 flops   144 x   436 x  1853          32109495552       0.0%    100.0%      0.0%     
 flops   156 x   416 x  1853          33189631488       0.0%    100.0%      0.0%     
 flops   144 x   416 x   416          33343045632       0.0%    100.0%      0.0%     
 flops   157 x   416 x  1853          33402385536       0.0%    100.0%      0.0%     
 flops    84 x   416 x   416          33550712832       0.0%    100.0%      0.0%     
 flops   156 x   436 x  1853          34785286848       0.0%    100.0%      0.0%     
 flops   144 x   416 x   436          34946076672       0.0%    100.0%      0.0%     
 flops   144 x   436 x   416          34946076672       0.0%    100.0%      0.0%     
 flops   157 x   436 x  1853          35008269456       0.0%    100.0%      0.0%     
 flops    84 x   416 x   436          35163727872       0.0%    100.0%      0.0%     
 flops    84 x   436 x   416          35163727872       0.0%    100.0%      0.0%     
 flops   156 x   416 x   416          36121632768       0.0%    100.0%      0.0%     
 flops    13 x    20 x    14          36242606400       0.0%    100.0%      0.0%     
 flops    14 x    20 x    13          36242606400       0.0%    100.0%      0.0%     
 flops   157 x   416 x   416          36353181696       0.0%    100.0%      0.0%     
 flops   144 x   436 x   436          36626176512       0.0%    100.0%      0.0%     
 flops    84 x   436 x   436          36854291712       0.0%    100.0%      0.0%     
 flops   156 x   416 x   436          37858249728       0.0%    100.0%      0.0%     
 flops   156 x   436 x   416          37858249728       0.0%    100.0%      0.0%     
 flops   157 x   416 x   436          38100930816       0.0%    100.0%      0.0%     
 flops   157 x   436 x   416          38100930816       0.0%    100.0%      0.0%     
 flops   156 x   436 x   436          39678357888       0.0%    100.0%      0.0%     
 flops   157 x   436 x   436          39932706336       0.0%    100.0%      0.0%     
 flops    26 x    20 x    14          41396409600       0.0%    100.0%      0.0%     
 flops    14 x    20 x    26          41396409600       0.0%    100.0%      0.0%     
 flops   195 x   416 x  1853          41487039360       0.0%    100.0%      0.0%     
 flops   195 x   436 x  1853          43481608560       0.0%    100.0%      0.0%     
 flops   195 x   416 x   416          45152040960       0.0%    100.0%      0.0%     
 flops   195 x   416 x   436          47322812160       0.0%    100.0%      0.0%     
 flops   195 x   436 x   416          47322812160       0.0%    100.0%      0.0%     
 flops   195 x   436 x   436          49597947360       0.0%    100.0%      0.0%     
 flops    14 x    14 x   416          55134643200       0.0%    100.0%      0.0%     
 flops    14 x    14 x   436          57785347200       0.0%    100.0%      0.0%     
 flops   143 x   416 x  1853          60847657728       0.0%    100.0%      0.0%     
 flops   144 x   416 x  1842          60909428736       0.0%    100.0%      0.0%     
 flops   143 x   436 x  1853          63773025888       0.0%    100.0%      0.0%     
 flops   144 x   436 x  1842          63837766656       0.0%    100.0%      0.0%     
 flops   156 x   416 x  1842          65985214464       0.0%    100.0%      0.0%     
 flops   143 x   416 x   416          66222993408       0.0%    100.0%      0.0%     
 flops   157 x   416 x  1842          66408196608       0.0%    100.0%      0.0%     
 flops   156 x   436 x  1842          69157580544       0.0%    100.0%      0.0%     
 flops   143 x   416 x   436          69406791168       0.0%    100.0%      0.0%     
 flops   143 x   436 x   416          69406791168       0.0%    100.0%      0.0%     
 flops    32 x    32 x  1853          69504399360       0.0%    100.0%      0.0%     
 flops    84 x   416 x  1853          69542823168       0.0%    100.0%      0.0%     
 flops   157 x   436 x  1842          69600898368       0.0%    100.0%      0.0%     
 flops    14 x    32 x    32          72467619840       0.0%    100.0%      0.0%     
 flops   143 x   436 x   436          72743656128       0.0%    100.0%      0.0%     
 flops    84 x   436 x  1853          72886228128       0.0%    100.0%      0.0%     
 flops   195 x   416 x  1842          82481518080       0.0%    100.0%      0.0%     
 flops   131 x   416 x  1853          83612340864       0.0%    100.0%      0.0%     
 flops   195 x   436 x  1842          86446975680       0.0%    100.0%      0.0%     
 flops   131 x   436 x  1853          87632164944       0.0%    100.0%      0.0%     
 flops   208 x   416 x  1853          88505683968       0.0%    100.0%      0.0%     
 flops   131 x   416 x   416          90998728704       0.0%    100.0%      0.0%     
 flops   208 x   436 x  1853          92760764928       0.0%    100.0%      0.0%     
 flops   131 x   416 x   436          95373667584       0.0%    100.0%      0.0%     
 flops   131 x   436 x   416          95373667584       0.0%    100.0%      0.0%     
 flops   208 x   416 x   416          96324354048       0.0%    100.0%      0.0%     
 flops   131 x   436 x   436          99958940064       0.0%    100.0%      0.0%     
 flops   208 x   416 x   436         100955332608       0.0%    100.0%      0.0%     
 flops   208 x   436 x   416         100955332608       0.0%    100.0%      0.0%     
 flops   208 x   436 x   436         105808954368       0.0%    100.0%      0.0%     
 flops   274 x   416 x  1853         116589218304       0.0%    100.0%      0.0%     
 flops   143 x   416 x  1842         120972893184       0.0%    100.0%      0.0%     
 flops   274 x   436 x  1853         122194469184       0.0%    100.0%      0.0%     
 flops   144 x   416 x  1855         122678599680       0.0%    100.0%      0.0%     
 flops   143 x   436 x  1842         126788897664       0.0%    100.0%      0.0%     
 flops   274 x   416 x   416         126888812544       0.0%    100.0%      0.0%     
 flops   144 x   436 x  1855         128576609280       0.0%    100.0%      0.0%     
 flops   156 x   416 x  1855         132901816320       0.0%    100.0%      0.0%     
 flops   274 x   416 x   436         132989236224       0.0%    100.0%      0.0%     
 flops   274 x   436 x   416         132989236224       0.0%    100.0%      0.0%     
 flops   157 x   416 x  1855         133753751040       0.0%    100.0%      0.0%     
 flops    32 x    32 x  1842         138183598080       0.0%    100.0%      0.0%     
 flops    84 x   416 x  1842         138259989504       0.0%    100.0%      0.0%     
 flops   156 x   436 x  1855         139291326720       0.0%    100.0%      0.0%     
 flops   274 x   436 x   436         139382949504       0.0%    100.0%      0.0%     
 flops   157 x   436 x  1855         140184219840       0.0%    100.0%      0.0%     
 flops    84 x   436 x  1842         144907104384       0.0%    100.0%      0.0%     
 flops    96 x   416 x   416         153374687232       0.0%    100.0%      0.0%     
 flops    96 x   416 x   436         160748470272       0.0%    100.0%      0.0%     
 flops    96 x   436 x   416         160748470272       0.0%    100.0%      0.0%     
 flops   195 x   416 x  1855         166127270400       0.0%    100.0%      0.0%     
 flops   131 x   416 x  1842         166231982592       0.0%    100.0%      0.0%     
 flops    96 x   436 x   436         168476762112       0.0%    100.0%      0.0%     
 flops    13 x    20 x    13         171064740600       0.0%    100.0%      0.0%     
 flops   195 x   436 x  1855         174114158400       0.0%    100.0%      0.0%     
 flops   131 x   436 x  1842         174223904832       0.0%    100.0%      0.0%     
 flops   208 x   416 x  1842         175960571904       0.0%    100.0%      0.0%     
 flops   208 x   436 x  1842         184420214784       0.0%    100.0%      0.0%     
 flops    14 x    13 x   416         190032577280       0.0%    100.0%      0.0%     
 flops    13 x    14 x   416         190115103360       0.0%    100.0%      0.0%     
 flops   144 x   448 x  1853         197959458816       0.0%    100.0%      0.0%     
 flops    14 x    13 x   436         199168758880       0.0%    100.0%      0.0%     
 flops    13 x    14 x   436         199255252560       0.0%    100.0%      0.0%     
 flops    14 x    26 x   416         214383979264       0.0%    100.0%      0.0%     
 flops   156 x   448 x  1853         214456080384       0.0%    100.0%      0.0%     
 flops    26 x    14 x   416         215131710976       0.0%    100.0%      0.0%     
 flops   144 x   416 x   448         215447371776       0.0%    100.0%      0.0%     
 flops   144 x   448 x   416         215447371776       0.0%    100.0%      0.0%     
 flops   157 x   448 x  1853         215830798848       0.0%    100.0%      0.0%     
 flops    84 x   416 x   448         216789221376       0.0%    100.0%      0.0%     
 flops    84 x   448 x   416         216789221376       0.0%    100.0%      0.0%     
 flops    14 x    26 x   436         224690901344       0.0%    100.0%      0.0%     
 flops    26 x    14 x   436         225474581696       0.0%    100.0%      0.0%     
 flops   144 x   436 x   448         225805418496       0.0%    100.0%      0.0%     
 flops   144 x   448 x   436         225805418496       0.0%    100.0%      0.0%     
 flops    84 x   436 x   448         227211780096       0.0%    100.0%      0.0%     
 flops    84 x   448 x   436         227211780096       0.0%    100.0%      0.0%     
 flops   274 x   416 x  1842         231794214912       0.0%    100.0%      0.0%     
 flops   156 x   416 x   448         233401319424       0.0%    100.0%      0.0%     
 flops   156 x   448 x   416         233401319424       0.0%    100.0%      0.0%     
 flops   157 x   416 x   448         234897481728       0.0%    100.0%      0.0%     
 flops   157 x   448 x   416         234897481728       0.0%    100.0%      0.0%     
 flops   274 x   436 x  1842         242938167552       0.0%    100.0%      0.0%     
 flops   143 x   416 x  1855         243653329920       0.0%    100.0%      0.0%     
 flops   156 x   436 x   448         244622536704       0.0%    100.0%      0.0%     
 flops   156 x   448 x   436         244622536704       0.0%    100.0%      0.0%     
 flops   157 x   436 x   448         246190629888       0.0%    100.0%      0.0%     
 flops   157 x   448 x   436         246190629888       0.0%    100.0%      0.0%     
 flops   143 x   436 x  1855         255367432320       0.0%    100.0%      0.0%     
 flops   209 x   416 x  1853         266793576192       0.0%    100.0%      0.0%     
 flops   195 x   448 x  1853         268070100480       0.0%    100.0%      0.0%     
 flops    32 x    32 x  1855         278317670400       0.0%    100.0%      0.0%     
 flops    84 x   416 x  1855         278471531520       0.0%    100.0%      0.0%     
 flops   209 x   436 x  1853         279620190432       0.0%    100.0%      0.0%     
 flops    32 x   416 x   416         281186926592       0.0%    100.0%      0.0%     
 flops   209 x   416 x   416         290362355712       0.0%    100.0%      0.0%     
 flops   195 x   416 x   448         291751649280       0.0%    100.0%      0.0%     
 flops   195 x   448 x   416         291751649280       0.0%    100.0%      0.0%     
 flops    84 x   436 x  1855         291859585920       0.0%    100.0%      0.0%     
 flops    32 x   416 x   436         294705528832       0.0%    100.0%      0.0%     
 flops    32 x   436 x   416         294705528832       0.0%    100.0%      0.0%     
 flops   235 x   416 x  1853         299983207680       0.0%    100.0%      0.0%     
 flops   209 x   416 x   436         304322084352       0.0%    100.0%      0.0%     
 flops   209 x   436 x   416         304322084352       0.0%    100.0%      0.0%     
 flops   195 x   436 x   448         305778170880       0.0%    100.0%      0.0%     
 flops   195 x   448 x   436         305778170880       0.0%    100.0%      0.0%     
 flops    32 x   436 x   436         308874063872       0.0%    100.0%      0.0%     
 flops   235 x   436 x  1853         314405477280       0.0%    100.0%      0.0%     
 flops   248 x   416 x  1853         316578023424       0.0%    100.0%      0.0%     
 flops    96 x   416 x  1853         317910048768       0.0%    100.0%      0.0%     
 flops   209 x   436 x   436         318952953792       0.0%    100.0%      0.0%     
 flops   235 x   416 x   416         326483988480       0.0%    100.0%      0.0%     
 flops   248 x   436 x  1853         331798120704       0.0%    100.0%      0.0%     
 flops    96 x   436 x  1853         333194185728       0.0%    100.0%      0.0%     
 flops    26 x    20 x    13         333255561600       0.0%    100.0%      0.0%     
 flops    13 x    20 x    26         333255561600       0.0%    100.0%      0.0%     
 flops   131 x   416 x  1855         334810344960       0.0%    100.0%      0.0%     
 flops   235 x   416 x   436         342180334080       0.0%    100.0%      0.0%     
 flops   235 x   436 x   416         342180334080       0.0%    100.0%      0.0%     
 flops   248 x   416 x   416         344544804864       0.0%    100.0%      0.0%     
 flops   131 x   436 x  1855         350906996160       0.0%    100.0%      0.0%     
 flops   208 x   416 x  1855         354404843520       0.0%    100.0%      0.0%     
 flops    14 x    14 x   448         356254617600       0.0%    100.0%      0.0%     
 flops   235 x   436 x   436         358631311680       0.0%    100.0%      0.0%     
 flops   248 x   416 x   436         361109458944       0.0%    100.0%      0.0%     
 flops   248 x   436 x   416         361109458944       0.0%    100.0%      0.0%     
 flops   208 x   436 x  1855         371443537920       0.0%    100.0%      0.0%     
 flops   248 x   436 x   436         378470490624       0.0%    100.0%      0.0%     
 flops    26 x    20 x    26         385897980000       0.0%    100.0%      0.0%     
 flops   261 x   416 x  1853         388701645696       0.0%    100.0%      0.0%     
 flops   143 x   448 x  1853         393169480704       0.0%    100.0%      0.0%     
 flops   144 x   448 x  1842         393568616448       0.0%    100.0%      0.0%     
 flops   261 x   436 x  1853         407389224816       0.0%    100.0%      0.0%     
 flops   261 x   416 x   416         423039891456       0.0%    100.0%      0.0%     
 flops   156 x   448 x  1842         426366001152       0.0%    100.0%      0.0%     
 flops   143 x   448 x   416         427902418944       0.0%    100.0%      0.0%     
 flops   143 x   416 x   448         427902418944       0.0%    100.0%      0.0%     
 flops   157 x   448 x  1842         429099116544       0.0%    100.0%      0.0%     
 flops   261 x   416 x   436         443378347776       0.0%    100.0%      0.0%     
 flops   261 x   436 x   416         443378347776       0.0%    100.0%      0.0%     
 flops   143 x   448 x   436         448474650624       0.0%    100.0%      0.0%     
 flops   143 x   436 x   448         448474650624       0.0%    100.0%      0.0%     
 flops    84 x   448 x  1853         449353626624       0.0%    100.0%      0.0%     
 flops   261 x   436 x   436         464694614496       0.0%    100.0%      0.0%     
 flops   274 x   416 x  1855         466860226560       0.0%    100.0%      0.0%     
 flops    26 x    32 x    32         485668085760       0.0%    100.0%      0.0%     
 flops   274 x   436 x  1855         489305429760       0.0%    100.0%      0.0%     
 flops   209 x   416 x  1842         530419608576       0.0%    100.0%      0.0%     
 flops   195 x   448 x  1842         532957501440       0.0%    100.0%      0.0%     
 flops   131 x   448 x  1853         540264356352       0.0%    100.0%      0.0%     
 flops    13 x    32 x    32         552959447040       0.0%    100.0%      0.0%     
 flops   209 x   436 x  1842         555920551296       0.0%    100.0%      0.0%     
 flops   208 x   448 x  1853         571882881024       0.0%    100.0%      0.0%     
 flops    32 x   416 x  1853         582835089408       0.0%    100.0%      0.0%     
 flops   131 x   416 x   448         587991785472       0.0%    100.0%      0.0%     
 flops   131 x   448 x   416         587991785472       0.0%    100.0%      0.0%     
 flops   235 x   416 x  1842         596404823040       0.0%    100.0%      0.0%     
 flops    32 x   436 x  1853         610856007168       0.0%    100.0%      0.0%     
 flops   131 x   436 x   448         616260621312       0.0%    100.0%      0.0%     
 flops   131 x   448 x   436         616260621312       0.0%    100.0%      0.0%     
 flops   208 x   416 x   448         622403518464       0.0%    100.0%      0.0%     
 flops   208 x   448 x   416         622403518464       0.0%    100.0%      0.0%     
 flops   235 x   436 x  1842         625078131840       0.0%    100.0%      0.0%     
 flops   248 x   416 x  1842         629397430272       0.0%    100.0%      0.0%     
 flops    96 x   416 x  1842         632045666304       0.0%    100.0%      0.0%     
 flops   208 x   436 x   448         652326764544       0.0%    100.0%      0.0%     
 flops   208 x   448 x   436         652326764544       0.0%    100.0%      0.0%     
 flops   248 x   436 x  1842         659656922112       0.0%    100.0%      0.0%     
 flops    96 x   436 x  1842         662432477184       0.0%    100.0%      0.0%     
 flops   274 x   448 x  1853         753345718272       0.0%    100.0%      0.0%     
 flops   261 x   416 x  1842         772788377088       0.0%    100.0%      0.0%     
 flops   143 x   448 x  1842         781671002112       0.0%    100.0%      0.0%     
 flops   144 x   448 x  1855         792692490240       0.0%    100.0%      0.0%     
 flops   261 x   436 x  1842         809941664448       0.0%    100.0%      0.0%     
 flops   274 x   416 x   448         819896942592       0.0%    100.0%      0.0%     
 flops   274 x   448 x   416         819896942592       0.0%    100.0%      0.0%     
 flops   156 x   448 x  1855         858750197760       0.0%    100.0%      0.0%     
 flops   274 x   436 x   448         859315064832       0.0%    100.0%      0.0%     
 flops   274 x   448 x   436         859315064832       0.0%    100.0%      0.0%     
 flops   157 x   448 x  1855         864255006720       0.0%    100.0%      0.0%     
 flops    84 x   448 x  1842         893372239872       0.0%    100.0%      0.0%     
 flops    13 x    13 x   416         928590277056       0.0%    100.0%      0.0%     
 flops    64 x   416 x   416         945810571264       0.0%    100.0%      0.0%     
 flops    13 x    13 x   436         973234040376       0.0%    100.0%      0.0%     
 flops    96 x   448 x   416         991036440576       0.0%    100.0%      0.0%     
 flops    96 x   416 x   448         991036440576       0.0%    100.0%      0.0%     
 flops    64 x   416 x   436         991282233344       0.0%    100.0%      0.0%     
 flops    64 x   436 x   416         991282233344       0.0%    100.0%      0.0%     
 flops    96 x   448 x   436        1038682423296       0.0%    100.0%      0.0%     
 flops    96 x   436 x   448        1038682423296       0.0%    100.0%      0.0%     
 flops    64 x   436 x   436        1038940033024       0.0%    100.0%      0.0%     
 flops   209 x   416 x  1855        1068326138880       0.0%    100.0%      0.0%     
 flops   195 x   448 x  1855        1073437747200       0.0%    100.0%      0.0%     
 flops   131 x   448 x  1842        1074114349056       0.0%    100.0%      0.0%     
 flops   209 x   436 x  1855        1119687972480       0.0%    100.0%      0.0%     
 flops   208 x   448 x  1842        1136976003072       0.0%    100.0%      0.0%     
 flops    32 x   416 x  1842        1158750388224       0.0%    100.0%      0.0%     
 flops   235 x   416 x  1855        1201227955200       0.0%    100.0%      0.0%     
 flops    32 x   436 x  1842        1214459541504       0.0%    100.0%      0.0%     
 flops    14 x    13 x   448        1227902807040       0.0%    100.0%      0.0%     
 flops    13 x    14 x   448        1228436052480       0.0%    100.0%      0.0%     
 flops   235 x   436 x  1855        1258979299200       0.0%    100.0%      0.0%     
 flops   248 x   416 x  1855        1267678863360       0.0%    100.0%      0.0%     
 flops    96 x   416 x  1855        1273012715520       0.0%    100.0%      0.0%     
 flops   248 x   436 x  1855        1328624962560       0.0%    100.0%      0.0%     
 flops    96 x   436 x  1855        1334215249920       0.0%    100.0%      0.0%     
 flops    14 x    26 x   448        1385250327552       0.0%    100.0%      0.0%     
 flops    26 x    14 x   448        1390081824768       0.0%    100.0%      0.0%     
 flops   144 x   448 x   448        1392121479168       0.0%    100.0%      0.0%     
 flops    84 x   448 x   448        1400791891968       0.0%    100.0%      0.0%     
 flops   274 x   448 x  1842        1497747234816       0.0%    100.0%      0.0%     
 flops   156 x   448 x   448        1508131602432       0.0%    100.0%      0.0%     
 flops   157 x   448 x   448        1517799112704       0.0%    100.0%      0.0%     
 flops   261 x   416 x  1855        1556484733440       0.0%    100.0%      0.0%     
 flops   143 x   448 x  1855        1574375362560       0.0%    100.0%      0.0%     
 flops   261 x   436 x  1855        1631315730240       0.0%    100.0%      0.0%     
 flops    26 x    13 x   416        1719703331840       0.0%    100.0%      0.0%     
 flops   209 x   448 x  1853        1723896953856       0.0%    100.0%      0.0%     
 flops    13 x    26 x   416        1731493312640       0.0%    100.0%      0.0%     
 flops    84 x   448 x  1855        1799354511360       0.0%    100.0%      0.0%     
 flops    26 x    13 x   436        1802381376640       0.0%    100.0%      0.0%     
 flops    13 x    26 x   436        1814738183440       0.0%    100.0%      0.0%     
 flops    32 x   448 x   416        1816900141056       0.0%    100.0%      0.0%     
 flops    32 x   416 x   448        1816900141056       0.0%    100.0%      0.0%     
 flops    14 x    32 x    14        1872284198400       0.0%    100.0%      0.0%     
 flops   209 x   448 x   416        1876187529216       0.0%    100.0%      0.0%     
 flops   209 x   416 x   448        1876187529216       0.0%    100.0%      0.0%     
 flops   195 x   448 x   448        1885164503040       0.0%    100.0%      0.0%     
 flops    32 x   448 x   436        1904251109376       0.0%    100.0%      0.0%     
 flops    32 x   436 x   448        1904251109376       0.0%    100.0%      0.0%     
 flops   235 x   448 x  1853        1938353034240       0.0%    100.0%      0.0%     
 flops    64 x   416 x  1853        1960445300736       0.0%    100.0%      0.0%     
 flops   209 x   448 x   436        1966388852736       0.0%    100.0%      0.0%     
 flops   209 x   436 x   448        1966388852736       0.0%    100.0%      0.0%     
 flops    26 x    26 x   416        1991329303808       0.0%    100.0%      0.0%     
 flops   248 x   448 x  1853        2045581074432       0.0%    100.0%      0.0%     
 flops    96 x   448 x  1853        2054188007424       0.0%    100.0%      0.0%     
 flops    64 x   436 x  1853        2054697478656       0.0%    100.0%      0.0%     
 flops    26 x    26 x   436        2087066289568       0.0%    100.0%      0.0%     
 flops   235 x   416 x   448        2109588848640       0.0%    100.0%      0.0%     
 flops   235 x   448 x   416        2109588848640       0.0%    100.0%      0.0%     
 flops   131 x   448 x  1855        2163389921280       0.0%    100.0%      0.0%     
 flops   235 x   436 x   448        2211011389440       0.0%    100.0%      0.0%     
 flops   235 x   448 x   436        2211011389440       0.0%    100.0%      0.0%     
 flops   248 x   416 x   448        2226289508352       0.0%    100.0%      0.0%     
 flops   248 x   448 x   416        2226289508352       0.0%    100.0%      0.0%     
 flops   208 x   448 x  1855        2290000527360       0.0%    100.0%      0.0%     
 flops   248 x   436 x   448        2333322657792       0.0%    100.0%      0.0%     
 flops   248 x   448 x   436        2333322657792       0.0%    100.0%      0.0%     
 flops    32 x   416 x  1855        2333856645120       0.0%    100.0%      0.0%     
 flops    32 x   436 x  1855        2446061291520       0.0%    100.0%      0.0%     
 flops   261 x   448 x  1853        2511610633728       0.0%    100.0%      0.0%     
 flops   261 x   448 x   416        2733488529408       0.0%    100.0%      0.0%     
 flops   261 x   416 x   448        2733488529408       0.0%    100.0%      0.0%     
 flops   143 x   448 x   448        2764907937792       0.0%    100.0%      0.0%     
 flops   261 x   448 x   436        2864906247168       0.0%    100.0%      0.0%     
 flops   261 x   436 x   448        2864906247168       0.0%    100.0%      0.0%     
 flops   274 x   448 x  1855        3016635310080       0.0%    100.0%      0.0%     
 flops   209 x   448 x  1842        3427326701568       0.0%    100.0%      0.0%     
 flops    32 x   448 x  1853        3766011346944       0.0%    100.0%      0.0%     
 flops   131 x   448 x   448        3799331536896       0.0%    100.0%      0.0%     
 flops   235 x   448 x  1842        3853692702720       0.0%    100.0%      0.0%     
 flops    64 x   416 x  1842        3897614942208       0.0%    100.0%      0.0%     
 flops   208 x   448 x   448        4021684273152       0.0%    100.0%      0.0%     
 flops   248 x   448 x  1842        4066875703296       0.0%    100.0%      0.0%     
 flops    96 x   448 x  1842        4083987382272       0.0%    100.0%      0.0%     
 flops    64 x   436 x  1842        4085000275968       0.0%    100.0%      0.0%     
 flops   261 x   448 x  1842        4993401821184       0.0%    100.0%      0.0%     
 flops   274 x   448 x   448        5297795629056       0.0%    100.0%      0.0%     
 flops    13 x    13 x   448        6000121790208       0.0%    100.0%      0.0%     
 flops    64 x   448 x   416        6111391383552       0.0%    100.0%      0.0%     
 flops    64 x   416 x   448        6111391383552       0.0%    100.0%      0.0%     
 flops    13 x    32 x    14        6378698726400       0.0%    100.0%      0.0%     
 flops    14 x    32 x    13        6378698726400       0.0%    100.0%      0.0%     
 flops    96 x   448 x   448        6403620077568       0.0%    100.0%      0.0%     
 flops    64 x   448 x   436        6405208276992       0.0%    100.0%      0.0%     
 flops    64 x   436 x   448        6405208276992       0.0%    100.0%      0.0%     
 flops   209 x   448 x  1855        6903030435840       0.0%    100.0%      0.0%     
 flops    26 x    32 x    14        7285768089600       0.0%    100.0%      0.0%     
 flops    14 x    32 x    26        7285768089600       0.0%    100.0%      0.0%     
 flops    32 x   448 x  1842        7487310200832       0.0%    100.0%      0.0%     
 flops   235 x   448 x  1855        7761780633600       0.0%    100.0%      0.0%     
 flops    64 x   416 x  1855        7850245079040       0.0%    100.0%      0.0%     
 flops   248 x   448 x  1855        8191155732480       0.0%    100.0%      0.0%     
 flops    96 x   448 x  1855        8225620623360       0.0%    100.0%      0.0%     
 flops    64 x   436 x  1855        8227660707840       0.0%    100.0%      0.0%     
 flops   261 x   448 x  1855       10057285969920       0.0%    100.0%      0.0%     
 flops    26 x    13 x   448       11111929221120       0.0%    100.0%      0.0%     
 flops    13 x    26 x   448       11188110635520       0.0%    100.0%      0.0%     
 flops    32 x   448 x   448       11739970142208       0.0%    100.0%      0.0%     
 flops   209 x   448 x   448       12123057881088       0.0%    100.0%      0.0%     
 flops    64 x   448 x  1853       12667492712448       0.0%    100.0%      0.0%     
 flops    26 x    26 x   448       12867050886144       0.0%    100.0%      0.0%     
 flops   235 x   448 x   448       13631189483520       0.0%    100.0%      0.0%     
 flops   248 x   448 x   448       14385255284736       0.0%    100.0%      0.0%     
 flops    32 x   448 x  1855       15080304476160       0.0%    100.0%      0.0%     
 flops   261 x   448 x   448       17662541266944       0.0%    100.0%      0.0%     
 flops    64 x   448 x  1842       25184588857344       0.0%    100.0%      0.0%     
 flops    13 x    32 x    13       30107394345600       0.0%    100.0%      0.0%     
 flops    64 x   448 x   448       39488990478336       0.0%    100.0%      0.0%     
 flops    64 x   448 x  1855       50724660510720       0.0%    100.0%      0.0%     
 flops    13 x    32 x    26       58652978841600       0.0%    100.0%      0.0%     
 flops    26 x    32 x    13       58652978841600       0.0%    100.0%      0.0%     
 flops    26 x    32 x    26       67918044480000       0.0%    100.0%      0.0%     
 flops inhomo. stacks             287046289897920     100.0%      0.0%      0.0%
 flops total                         1.116410E+15      25.7%     74.3%      0.0%
 flops max/rank                     22.170108E+12      31.0%     69.0%      0.0%
 matmuls inhomo. stacks                   1678392     100.0%      0.0%      0.0%
 matmuls total                        12008977105       0.0%    100.0%      0.0%
 number of processed stacks              34069660       4.9%     95.1%      0.0%
 average stack size                                     1.0     370.5       0.0
 marketing flops                     1.428916E+15
 -------------------------------------------------------------------------------
 # multiplications                           2935
 max memory usage/rank               2.457768E+09
 # max total images/rank                        1
 # max 3D layers                                1
 # MPI messages exchanged                 2629760
 MPI messages size (bytes):
  total size                        12.949379E+12
  min size                           0.000000E+00
  max size                          27.528200E+06
  average size                       4.924168E+06
 MPI breakdown and total messages size (bytes):
             size <=      128                3864                        0
       128 < size <=     8192                   0                        0
      8192 < size <=    32768                   0                        0
     32768 < size <=   131072                 168                 18990720
    131072 < size <=  4194304             1335040            2091273408000
   4194304 < size <= 16777216             1228864            9162159825000
  16777216 < size                           61824            1695258291888
 -------------------------------------------------------------------------------
 -                                                                             -
 -                      DBCSR MESSAGE PASSING PERFORMANCE                      -
 -                                                                             -
 -------------------------------------------------------------------------------
 ROUTINE             CALLS      AVE VOLUME [Bytes]
 MP_Bcast              358                     12.
 MP_Allreduce        16629                    188.
 MP_Alltoall          9575                 429209.
 MP_ISend            93908                2180663.
 MP_IRecv            93908                2172418.
 -------------------------------------------------------------------------------

 -------------------------------------------------------------------------------
 -                                                                             -
 -                                DBM STATISTICS                               -
 -                                                                             -
 -------------------------------------------------------------------------------
    M  x    N  x    K                                          COUNT     PERCENT
 -------------------------------------------------------------------------------

 -------------------------------------------------------------------------------
 -                                                                             -
 -                                GRID STATISTICS                              -
 -                                                                             -
 -------------------------------------------------------------------------------
 LP    KERNEL             BACKEND                              COUNT     PERCENT
 5     collocate general  CPU                               82522080      24.95%
 5     integrate general  CPU                               81915300      24.76%
 4     collocate general  CPU                               46276720      13.99%
 4     integrate general  CPU                               45936450      13.89%
 6     collocate general  CPU                               36532864      11.04%
 6     integrate general  CPU                               36264240      10.96%
 8     integrate general  CPU                                 606780       0.18%
 7     integrate general  CPU                                 340270       0.10%
 9     integrate general  CPU                                 268624       0.08%
 0     collocate general  CPU                                  56640       0.02%
 3     integrate general  CPU                                  56640       0.02%
 -------------------------------------------------------------------------------

 MEMORY| Estimated peak process memory [MiB]                                2344

 -------------------------------------------------------------------------------
 -                                                                             -
 -                         MESSAGE PASSING PERFORMANCE                         -
 -                                                                             -
 -------------------------------------------------------------------------------

 ROUTINE             CALLS      AVE VOLUME [Bytes]
 MP_Group                5
 MP_Bcast            11133                 154578.
 MP_Allreduce        29557                   3646.
 MP_Sync               125
 MP_Alltoall          3556               32540371.
 MP_SendRecv         25704                 146235.
 MP_ISendRecv        25704                 146235.
 MP_Wait             66108
 MP_ISend            38220                 521248.
 MP_IRecv            38220                 521248.
 -------------------------------------------------------------------------------


 -------------------------------------------------------------------------------
 -                                                                             -
 -                           R E F E R E N C E S                               -
 -                                                                             -
 -------------------------------------------------------------------------------
 
 CP2K version 2024.3, the CP2K developers group (2024).
 CP2K is freely available from https://www.cp2k.org/ .
 
 T. D. Kuehne, M. Iannuzzi, M. Del Ben, V. V. Rybkin, P. Seewald, F. Stein, T. 
 Laino, R. Z. Khaliullin, O. Schuett, F. Schiffmann, D. Golze, J. Wilhelm, S. 
 Chulkov, M. H. Bani-Hashemian, V. Weber, U. Borstnik, M. Taillefumier, A. S. 
 Jakobovits, A. Lazzaro, H. Pabst, T. Mueller, R. Schade, M. Guidon, S. 
 Andermatt, N. Holmberg, G. K. Schenter, A. Hehn, A. Bussy, F. Belleflamme, G. 
 Tabacchi, A. Gloess, M. Lass, I. Bethune, C. J. Mundy, C. Plessl, M. Watkins, 
 J. VandeVondele, M. Krack, J. Hutter.
 J. Chem. Phys. 152, 194103 (2020).
 CP2K: An electronic structure and molecular dynamics software package - 
 Quickstep: Efficient and accurate electronic structure calculations.
 https://doi.org/10.1063/5.0007045

 O. Schuett, P. Messmer, J. Hutter, J. VandeVondele.
 Electronic Structure Calculations on Graphics Processing Units, 173-190 (2016).
 GPU-Accelerated Sparse Matrix-Matrix Multiplication for Linear Scaling Density 
 Functional Theory.
 https://doi.org/10.1002/9781118670712.ch8

 A. Heinecke, G. Henry, M. Hutchinson, H. Pabst.
 Proceedings of Intl. Supercomputing Conference, 981-991 (2016).
 LIBXSMM: Accelerating Small Matrix Multiplications by Runtime Code Generation.
 https://doi.org/10.1109/SC.2016.83

 J. Hutter, M. Iannuzzi, F. Schiffmann, J. VandeVondele.
 WIREs Comput Mol Sci. 4, 15-25 (2014).
 CP2K: atomistic simulations of condensed matter systems.
 https://doi.org/10.1002/wcms.1159

 U. Borstnik, J. VandeVondele, V. Weber, J. Hutter.
 Parallel Comput. 40, 47-58 (2014).
 Sparse matrix multiplication: The distributed block-compressed sparse row 
 library.
 https://doi.org/10.1016/j.parco.2014.03.012

 A. Marek, V. Blum, R. Johanni, V. Havu, B. Lang, T. Auckenthaler, A. Heinecke, 
 H. Bungartz, H. Lederer.
 J. Phys. Condens. Matter 26, 213201 (2014).
 The ELPA library: scalable parallel eigenvalue solutions for electronic 
 structure theory and computational science.
 https://doi.org/10.1088/0953-8984/26/21/213201

 J. P. Perdew, A. Ruzsinszky, G. I. Csonka, O. A. Vydrov, G. E. Scuseria, L. A. 
 Constantin, X. Zhou, K. Burke.
 Phys. Rev. Lett. 100, 136406-136409 (2008).
 Restoring the Density-Gradient Expansion for Exchange in Solids and Surfaces.
 https://doi.org/10.1103/PhysRevLett.100.136406

 J. VandeVondele, J. Hutter.
 J. Chem. Phys. 127, 114105 (2007).
 Gaussian basis sets for accurate calculations on molecular systems in gas and 
 condensed phases.
 https://doi.org/10.1063/1.2770708

 J. VandeVondele, M. Krack, F. Mohamed, M. Parrinello, T. Chassaing, J. Hutter.
 Comput. Phys. Commun. 167, 103-128 (2005).
 QUICKSTEP: Fast and accurate density functional calculations using a mixed 
 Gaussian and plane waves approach.
 https://doi.org/10.1016/j.cpc.2004.12.014

 M. Krack.
 Theor. Chem. Acc. 114, 145-152 (2005).
 Pseudopotentials for H to Kr optimized for gradient-corrected 
 exchange-correlation functionals.
 https://doi.org/10.1007/s00214-005-0655-y

 M. Frigo, S. G. Johnson.
 Proc. IEEE 93, 216-231 (2005).
 The design and implementation of FFTW3.
 https://doi.org/10.1109/JPROC.2004.840301

 J. VandeVondele, J. Hutter.
 J. Chem. Phys. 118, 4365-4369 (2003).
 An efficient orbital transformation method for electronic structure 
 calculations.
 https://doi.org/10.1063/1.1543154

 C. Hartwigsen, S. Goedecker, J. Hutter.
 Phys. Rev. B 58, 3641-3662 (1998).
 Relativistic separable dual-space Gaussian pseudopotentials from H to Rn.
 https://doi.org/10.1103/PhysRevB.58.3641

 G. Lippert, J. Hutter, M. Parrinello.
 Mol. Phys. 92, 477-487 (1997).
 A hybrid Gaussian and plane wave density functional scheme.
 https://doi.org/10.1080/002689797170220

 S. Goedecker, M. Teter, J. Hutter.
 Phys. Rev. B 54, 1703-1710 (1996).
 Separable dual-space Gaussian pseudopotentials.
 https://doi.org/10.1103/PhysRevB.54.1703

 J. P. Perdew, K. Burke, M. Ernzerhof.
 Phys. Rev. Lett. 77, 3865-3868 (1996).
 Generalized gradient approximation made simple.
 https://doi.org/10.1103/PhysRevLett.77.3865


 -------------------------------------------------------------------------------
 -                                                                             -
 -                                T I M I N G                                  -
 -                                                                             -
 -------------------------------------------------------------------------------
 SUBROUTINE                       CALLS  ASD         SELF TIME        TOTAL TIME
                                MAXIMUM       AVERAGE  MAXIMUM  AVERAGE  MAXIMUM
 CP2K                                 1  1.0    1.277    1.303  634.836  634.838
 qs_forces                            1  2.0    0.002    0.002  632.447  632.449
 qs_energies                          1  3.0    0.000    0.000  609.669  609.687
 scf_env_do_scf                       1  4.0    0.000    0.000  602.911  602.913
 scf_env_do_scf_inner_loop          135  5.0    0.004    0.015  577.288  577.291
 qs_scf_new_mos                     135  6.0    0.001    0.002  306.592  309.926
 qs_scf_loop_do_ot                  135  7.0    0.001    0.001  306.591  309.924
 ot_scf_mini                        135  8.0    0.006    0.007  288.474  289.722
 dbcsr_multiply_generic            2935 11.1    0.240    0.256  249.842  254.965
 multiply_cannon                   2935 12.1    0.480    0.526  189.119  200.596
 multiply_cannon_loop              2935 13.1    0.354    0.440  177.536  188.775
 rebuild_ks_matrix                  136  7.0    0.001    0.002  170.609  172.763
 qs_ks_build_kohn_sham_matrix       136  8.0    0.029    0.036  170.608  172.762
 qs_ks_update_qs_env                138  6.0    0.002    0.002  167.673  169.812
 multiply_cannon_multrec          23480 14.1  153.376  162.856  153.408  162.890
 ot_mini                            135  9.0    0.002    0.002  153.794  155.376
 qs_rho_update_rho_low              136  6.0    0.001    0.001  104.734  104.807
 calculate_rho_elec                 136  7.0    0.765    0.851  104.733  104.806
 qs_ot_get_derivative               135 10.0    0.002    0.003  100.895  102.219
 qs_ot_get_p                        138  9.0    0.002    0.002   93.014   94.451
 sum_up_and_integrate               136  9.0    0.004    0.004   89.952   89.993
 integrate_v_rspace                 136 10.0    0.006    0.007   89.807   89.857
 grid_collocate_task_list           136  8.0   77.697   81.410   77.697   81.410
 qs_ot_p2m_diag                     120 10.0    1.896    1.964   72.730   73.016
 grid_integrate_task_list           136 11.0   66.748   69.924   66.748   69.924
 cp_dbcsr_syevd                     120 11.0    0.019    0.021   64.456   64.475
 qs_ot_get_derivative_diag          118 11.0    0.006    0.007   63.181   64.294
 cp_fm_diag_elpa                    120 12.0    0.001    0.002   63.283   63.349
 cp_fm_diag_elpa_base               120 13.0   62.944   63.110   63.237   63.238
 fft_wrap_pw1pw2                   2721 11.1    0.053    0.061   54.675   54.847
 fft_wrap_pw1pw2_300               1633 12.6    2.796    2.998   52.425   52.666
 ot_diis_step                       135 10.0    0.009    0.010   51.617   51.617
 apply_preconditioner_dbcsr         138 11.0    0.000    0.001   43.103   45.126
 apply_single                       138 12.0    0.001    0.001   43.103   45.125
 qs_vxc_create                      136  9.0    0.003    0.004   43.802   43.816
 xc_vxc_pw_create                   136 10.0    0.963    1.078   43.799   43.813
 fft3d_ps                          2721 13.1   18.242   21.355   42.145   42.720
 mp_waitall_1                    262688 15.1   27.752   37.767   27.752   37.767
 make_m2s                          5870 12.1    0.142    0.158   33.287   35.961
 xc_pw_derive                       816 12.0    0.007    0.008   29.977   30.826
 density_rs2pw                      136  8.0    0.008    0.009   24.221   29.344
 mp_sum_l                         14527 11.9   19.832   28.571   19.832   28.571
 make_images                       5870 13.1    2.231    2.586   25.557   27.863
 init_scf_loop                        3  5.0    0.000    0.000   25.600   25.602
 mp_sum_d                          8080 11.6   14.705   24.983   14.705   24.983
 mp_alltoall_z22v                  2721 15.1   19.917   23.374   19.917   23.374
 xc_rho_set_and_dset_create         136 11.0    0.676    0.781   22.390   23.357
 calculate_dm_sparse                136  8.0    0.001    0.002   18.309   21.256
 xc_pw_divergence                   136 11.0    0.003    0.004   19.979   20.785
 transfer_rs2pw                     681  9.0    0.013    0.015   14.940   20.594
 mp_waitany                       38220 12.5   14.581   20.536   14.581   20.536
 qs_ot_get_orbitals                 135  9.0    0.001    0.002   19.747   20.403
 mp_irecv_dv                      82183 14.0   10.182   20.214   10.182   20.214
 build_core_hamiltonian_matrix_       1  3.0    0.000    0.000   14.880   19.284
 prepare_preconditioner               3  6.0    0.000    0.000   19.071   19.117
 make_preconditioner                  3  7.0    0.000    0.001   19.071   19.117
 potential_pw2rs                    136 11.0    0.044    0.049   18.666   18.696
 build_core_ppnl_forces               1  4.0   13.537   17.907   13.537   17.907
 multiply_cannon_metrocomm1       23480 14.1    0.097    0.109    7.935   17.831
 transfer_rs2pw_300                 137 10.0    1.859    2.168   10.315   16.106
 make_images_data                  5870 14.1    0.093    0.110   13.494   15.376
 hybrid_alltoall_any               6009 15.1    0.425    3.478   12.272   14.125
 x_to_yz                           1224 14.4    2.423    2.700   13.001   13.955
 mp_allgather_i34                  2935 13.1    8.597   13.933    8.597   13.933
 dbcsr_make_dense_low              7780 14.1    0.078    0.089   10.040   13.670
 make_dense_data                   7780 15.1    9.610   13.265    9.938   13.573
 transfer_pw2rs                     681 12.0    0.009    0.011   13.186   13.204
 dbcsr_dot_sd                      1695 10.6    2.258    2.319   10.196   13.115
 yz_to_x                            953 14.1    1.371    1.451   10.689   12.948
 multiply_cannon_metrocomm2       20545 14.1    0.094    0.111    4.615   12.869
 -------------------------------------------------------------------------------

 The number of warnings for this run is : 0
 
 -------------------------------------------------------------------------------
  **** **** ******  **  PROGRAM ENDED AT                 2026-08-31 16:02:47.805
 ***** ** ***  *** **   PROGRAM RAN ON                                 nid006339
 **    ****   ******    PROGRAM RAN BY                                    agne_r
 ***** **    ** ** **   PROGRAM PROCESS ID                                108021
  **** **  *******  **  PROGRAM STOPPED IN /mnt/lustre/a2fs-work3/work/e89/e89/a
                                           gne_r/Crystalline_HfO2_Interfaces/Cla
                                           ude/HfO2_STO_interfaces/V4_lattice_ma
                                           tches/updated/V4_lattice_matches/STO_
                                           HfO2_m111_pbesol_matches/configs/m06_
                                           A0350_eps1p2
