Sr69 Hf180 Ti69 O567
1.0
  19.5074034861666661    0.0000000000000000    0.0000000000000012
   8.5832575339133275   17.9468112072733348    0.0000000000000012
   0.0000000000000000    0.0000000000000000   46.9104457696443689
Sr Hf Ti O
69 180 69 567
direct
   0.7826086956521742    0.1304347826086955    0.2047714290819397 Sr
   0.8260869565217391    0.3043478260869565    0.2047714290819397 Sr
   0.8695652173913043    0.4782608695652174    0.2047714290819397 Sr
   0.9130434782608698    0.6521739130434783    0.2047714290819397 Sr
   0.9565217391304350    0.8260869565217390    0.2047714290819397 Sr
   0.5217391304347827    0.0869565217391303    0.2047714290819397 Sr
   0.5652173913043479    0.2608695652173911    0.2047714290819397 Sr
   0.6086956521739131    0.4347826086956521    0.2047714290819397 Sr
   0.6521739130434783    0.6086956521739131    0.2047714290819397 Sr
   0.6956521739130435    0.7826086956521738    0.2047714290819397 Sr
   0.7391304347826088    0.9565217391304348    0.2047714290819397 Sr
   0.2608695652173914    0.0434782608695651    0.2047714290819397 Sr
   0.3043478260869565    0.2173913043478260    0.2047714290819397 Sr
   0.3478260869565217    0.3913043478260869    0.2047714290819397 Sr
   0.3913043478260869    0.5652173913043477    0.2047714290819397 Sr
   0.4347826086956522    0.7391304347826086    0.2047714290819397 Sr
   0.4782608695652174    0.9130434782608693    0.2047714290819397 Sr
   0.0000000000000000    0.0000000000000000    0.2047714290819397 Sr
   0.0434782608695652    0.1739130434782609    0.2047714290819397 Sr
   0.0869565217391304    0.3478260869565217    0.2047714290819397 Sr
   0.1304347826086957    0.5217391304347826    0.2047714290819397 Sr
   0.1739130434782609    0.6956521739130435    0.2047714290819397 Sr
   0.2173913043478261    0.8695652173913043    0.2047714290819397 Sr
   0.7826086956521742    0.1304347826086954    0.2879401270813514 Sr
   0.8260869565217391    0.3043478260869564    0.2879401270813514 Sr
   0.8695652173913043    0.4782608695652172    0.2879401270813514 Sr
   0.9130434782608698    0.6521739130434782    0.2879401270813514 Sr
   0.9565217391304350    0.8260869565217390    0.2879401270813514 Sr
   0.5217391304347828    0.0869565217391303    0.2879401270813514 Sr
   0.5652173913043479    0.2608695652173911    0.2879401270813514 Sr
   0.6086956521739131    0.4347826086956521    0.2879401270813514 Sr
   0.6521739130434783    0.6086956521739130    0.2879401270813514 Sr
   0.6956521739130435    0.7826086956521738    0.2879401270813514 Sr
   0.7391304347826088    0.9565217391304348    0.2879401270813514 Sr
   0.2608695652173915    0.0434782608695651    0.2879401270813514 Sr
   0.3043478260869566    0.2173913043478261    0.2879401270813514 Sr
   0.3478260869565217    0.3913043478260869    0.2879401270813514 Sr
   0.3913043478260870    0.5652173913043477    0.2879401270813514 Sr
   0.4347826086956522    0.7391304347826086    0.2879401270813514 Sr
   0.4782608695652175    0.9130434782608693    0.2879401270813514 Sr
   0.0000000000000000    0.0000000000000000    0.2879401270813514 Sr
   0.0434782608695653    0.1739130434782609    0.2879401270813514 Sr
   0.0869565217391305    0.3478260869565217    0.2879401270813514 Sr
   0.1304347826086957    0.5217391304347826    0.2879401270813514 Sr
   0.1739130434782609    0.6956521739130435    0.2879401270813514 Sr
   0.2173913043478261    0.8695652173913043    0.2879401270813514 Sr
   0.7826086956521742    0.1304347826086955    0.3711088250807631 Sr
   0.8260869565217391    0.3043478260869565    0.3711088250807631 Sr
   0.8695652173913043    0.4782608695652172    0.3711088250807631 Sr
   0.9130434782608698    0.6521739130434782    0.3711088250807631 Sr
   0.9565217391304350    0.8260869565217390    0.3711088250807631 Sr
   0.5217391304347828    0.0869565217391303    0.3711088250807631 Sr
   0.5652173913043479    0.2608695652173913    0.3711088250807631 Sr
   0.6086956521739132    0.4347826086956522    0.3711088250807631 Sr
   0.6521739130434782    0.6086956521739129    0.3711088250807631 Sr
   0.6956521739130435    0.7826086956521738    0.3711088250807631 Sr
   0.7391304347826088    0.9565217391304348    0.3711088250807631 Sr
   0.2608695652173915    0.0434782608695652    0.3711088250807631 Sr
   0.3043478260869566    0.2173913043478260    0.3711088250807631 Sr
   0.3478260869565218    0.3913043478260870    0.3711088250807631 Sr
   0.3913043478260870    0.5652173913043478    0.3711088250807631 Sr
   0.4347826086956522    0.7391304347826086    0.3711088250807631 Sr
   0.4782608695652175    0.9130434782608693    0.3711088250807631 Sr
   0.0000000000000001    0.0000000000000000    0.3711088250807631 Sr
   0.0434782608695653    0.1739130434782609    0.3711088250807631 Sr
   0.0869565217391305    0.3478260869565217    0.3711088250807631 Sr
   0.1304347826086958    0.5217391304347826    0.3711088250807631 Sr
   0.1739130434782609    0.6956521739130436    0.3711088250807631 Sr
   0.2173913043478261    0.8695652173913043    0.3711088250807631 Sr
   0.2385575097011190    0.7830017753394386    0.7505697345785484 Hf
   0.2385575097011189    1.1163351086727722    0.7505697345785484 Hf
   0.2385575097011191    0.4496684420061053    0.7505697345785485 Hf
  -0.0947758236322143    0.6718906642283275    0.7505697345785485 Hf
  -0.0947758236322144    1.0052239975616610    0.7505697345785484 Hf
  -0.0947758236322144    1.3385573308949943    0.7505697345785486 Hf
   0.5718908430344524    0.5607795531172164    0.7505697345785484 Hf
   0.5718908430344524    0.8941128864505499    0.7505697345785484 Hf
   0.5718908430344525    1.2274462197838829    0.7505697345785486 Hf
   0.2726914791878102    0.9491838354410049    0.7540036292204603 Hf
   0.2726914791878100    1.2825171687743384    0.7540036292204600 Hf
   0.2726914791878102    0.6158505021076717    0.7540036292204600 Hf
  -0.0606418541455233    0.8380727243298939    0.7540036292204600 Hf
  -0.0606418541455232    1.1714060576632273    0.7540036292204602 Hf
  -0.0606418541455232    0.5047393909965604    0.7540036292204603 Hf
   0.6060248125211435    0.7269616132187828    0.7540036292204602 Hf
   0.6060248125211435    1.0602949465521161    0.7540036292204602 Hf
   0.6060248125211435    0.3936282798854494    0.7540036292204602 Hf
   0.4217407746094350    0.6746747737529596    0.7595415424850543 Hf
   0.4217407746094350    1.0080081070862930    0.7595415424850543 Hf
   0.4217407746094349    1.3413414404196264    0.7595415424850543 Hf
   0.0884074412761017    0.5635636626418485    0.7595415424850543 Hf
   0.0884074412761017    0.8968969959751819    0.7595415424850543 Hf
   0.0884074412761016    1.2302303293085153    0.7595415424850543 Hf
   0.7550741079427684    0.4524525515307373    0.7595415424850543 Hf
   0.7550741079427684    0.7857858848640707    0.7595415424850543 Hf
   0.7550741079427684    1.1191192181974041    0.7595415424850545 Hf
   0.0895082142794941    1.0575108370274839    0.7450318213139541 Hf
   0.0895082142794942    0.3908441703608173    0.7450318213139543 Hf
   0.0895082142794941    0.7241775036941506    0.7450318213139542 Hf
  -0.2438251190538393    0.9463997259163730    0.7450318213139542 Hf
  -0.2438251190538392    1.2797330592497063    0.7450318213139543 Hf
  -0.2438251190538393    0.6130663925830394    0.7450318213139543 Hf
   0.4228415476128274    0.8352886148052618    0.7450318213139542 Hf
   0.4228415476128275    1.1686219481385951    0.7450318213139543 Hf
   0.4228415476128275    0.5019552814719285    0.7450318213139543 Hf
   0.1163697569233511    0.9660481780345499    0.6841974083639765 Hf
   0.1163697569233512    1.2993815113678830    0.6841974083639766 Hf
   0.1163697569233512    0.6327148447012163    0.6841974083639766 Hf
  -0.2169635764099823    0.8549370669234388    0.6841974083639765 Hf
  -0.2169635764099822    1.1882704002567719    0.6841974083639766 Hf
  -0.2169635764099822    1.5216037335901054    0.6841974083639766 Hf
   0.4497030902566845    0.7438259558123275    0.6841974083639765 Hf
   0.4497030902566846    1.0771592891456607    0.6841974083639766 Hf
   0.4497030902566845    1.4104926224789944    0.6841974083639766 Hf
   0.1505037264100423    1.1322302381361160    0.6876313030058882 Hf
   0.1505037264100424    1.4655635714694495    0.6876313030058883 Hf
   0.1505037264100424    0.7988969048027825    0.6876313030058883 Hf
  -0.1828296069232911    1.0211191270250051    0.6876313030058883 Hf
  -0.1828296069232911    1.3544524603583383    0.6876313030058883 Hf
  -0.1828296069232909    0.6877857936916713    0.6876313030058883 Hf
   0.4838370597433757    0.9100080159138939    0.6876313030058883 Hf
   0.4838370597433757    1.2433413492472272    0.6876313030058883 Hf
   0.4838370597433757    0.5766746825805603    0.6876313030058883 Hf
   0.2995530218316672    0.8577211764480708    0.6931692162704826 Hf
   0.2995530218316672    1.1910545097814043    0.6931692162704826 Hf
   0.2995530218316671    1.5243878431147373    0.6931692162704826 Hf
  -0.0337803115016661    0.7466100653369595    0.6931692162704826 Hf
  -0.0337803115016662    1.0799433986702931    0.6931692162704826 Hf
  -0.0337803115016661    1.4132767320036264    0.6931692162704826 Hf
   0.6328863551650006    0.6354989542258485    0.6931692162704824 Hf
   0.6328863551650006    0.9688322875591817    0.6931692162704826 Hf
   0.6328863551650007    1.3021656208925152    0.6931692162704826 Hf
  -0.0326795384982738    1.2405572397225950    0.6786594950993823 Hf
  -0.0326795384982738    0.5738905730559285    0.6786594950993822 Hf
  -0.0326795384982738    0.9072239063892620    0.6786594950993822 Hf
  -0.3660128718316072    1.1294461286114841    0.6786594950993823 Hf
  -0.3660128718316072    1.4627794619448176    0.6786594950993823 Hf
  -0.3660128718316072    0.7961127952781506    0.6786594950993823 Hf
   0.3006537948350596    1.0183350175003729    0.6786594950993823 Hf
   0.3006537948350596    1.3516683508337066    0.6786594950993823 Hf
   0.3006537948350596    0.6850016841670397    0.6786594950993823 Hf
  -0.0058179958544166    1.1490945807296606    0.6178250821494047 Hf
  -0.0058179958544166    1.4824279140629941    0.6178250821494047 Hf
  -0.0058179958544165    0.8157612473963273    0.6178250821494047 Hf
  -0.3391513291877500    1.0379834696185497    0.6178250821494047 Hf
  -0.3391513291877500    1.3713168029518832    0.6178250821494047 Hf
  -0.3391513291877502    1.7046501362852167    0.6178250821494047 Hf
   0.3275153374789168    0.9268723585074384    0.6178250821494047 Hf
   0.3275153374789167    1.2602056918407718    0.6178250821494047 Hf
   0.3275153374789166    1.5935390251741053    0.6178250821494047 Hf
   0.0283159736322744    1.3152766408312271    0.6212589767913164 Hf
   0.0283159736322745    1.6486099741645608    0.6212589767913164 Hf
   0.0283159736322746    0.9819433074978937    0.6212589767913164 Hf
  -0.3050173597010589    1.2041655297201161    0.6212589767913164 Hf
  -0.3050173597010589    1.5374988630534496    0.6212589767913164 Hf
  -0.3050173597010588    0.8708321963867827    0.6212589767913164 Hf
   0.3616493069656078    1.0930544186090050    0.6212589767913164 Hf
   0.3616493069656078    1.4263877519423385    0.6212589767913164 Hf
   0.3616493069656078    0.7597210852756715    0.6212589767913164 Hf
   0.1773652690538993    1.0407675791431819    0.6267968900559107 Hf
   0.1773652690538993    1.3741009124765153    0.6267968900559105 Hf
   0.1773652690538992    1.7074342458098486    0.6267968900559105 Hf
  -0.1559680642794340    0.9296564680320707    0.6267968900559107 Hf
  -0.1559680642794340    1.2629898013654042    0.6267968900559105 Hf
  -0.1559680642794340    1.5963231346987377    0.6267968900559107 Hf
   0.5106986023872326    0.8185453569209595    0.6267968900559105 Hf
   0.5106986023872326    1.1518786902542930    0.6267968900559104 Hf
   0.5106986023872327    1.4852120235876263    0.6267968900559107 Hf
  -0.1548672912760416    1.4236036424177061    0.6122871688848103 Hf
  -0.1548672912760415    0.7569369757510394    0.6122871688848103 Hf
  -0.1548672912760416    1.0902703090843726    0.6122871688848104 Hf
  -0.4882006246093749    1.3124925313065952    0.6122871688848104 Hf
  -0.4882006246093751    1.6458258646399286    0.6122871688848104 Hf
  -0.4882006246093749    0.9791591979732617    0.6122871688848104 Hf
   0.1784660420572917    1.2013814201954840    0.6122871688848104 Hf
   0.1784660420572917    1.5347147535288175    0.6122871688848104 Hf
   0.1784660420572919    0.8680480868621505    0.6122871688848104 Hf
  -0.1280057486321844    1.3321409834247717    0.5514527559348328 Hf
  -0.1280057486321844    1.6654743167581050    0.5514527559348328 Hf
  -0.1280057486321845    0.9988076500914385    0.5514527559348328 Hf
  -0.4613390819655179    1.2210298723136608    0.5514527559348328 Hf
  -0.4613390819655178    1.5543632056469938    0.5514527559348328 Hf
  -0.4613390819655179    1.8876965389803277    0.5514527559348328 Hf
   0.2053275847011488    1.1099187612025496    0.5514527559348328 Hf
   0.2053275847011489    1.4432520945358829    0.5514527559348328 Hf
   0.2053275847011488    1.7765854278692166    0.5514527559348327 Hf
  -0.0938717791454932    1.4983230435263382    0.5548866505767445 Hf
  -0.0938717791454933    1.8316563768596716    0.5548866505767445 Hf
  -0.0938717791454934    1.1649897101930049    0.5548866505767445 Hf
  -0.4272051124788266    1.3872119324152272    0.5548866505767445 Hf
  -0.4272051124788265    1.7205452657485603    0.5548866505767445 Hf
  -0.4272051124788268    1.0538785990818940    0.5548866505767445 Hf
   0.2394615541878400    1.2761008213041161    0.5548866505767445 Hf
   0.2394615541878400    1.6094341546374493    0.5548866505767445 Hf
   0.2394615541878400    0.9427674879707826    0.5548866505767445 Hf
   0.0551775162761316    1.2238139818382927    0.5604245638413388 Hf
   0.0551775162761316    1.5571473151716262    0.5604245638413388 Hf
   0.0551775162761317    1.8904806485049592    0.5604245638413388 Hf
  -0.2781558170572017    1.1127028707271818    0.5604245638413388 Hf
  -0.2781558170572017    1.4460362040605150    0.5604245638413388 Hf
  -0.2781558170572015    1.7793695373938483    0.5604245638413388 Hf
   0.3885108496094650    1.0015917596160704    0.5604245638413385 Hf
   0.3885108496094650    1.3349250929494039    0.5604245638413388 Hf
   0.3885108496094650    1.6682584262827369    0.5604245638413388 Hf
  -0.2770550440538095    1.6066500451128174    0.5459148426702384 Hf
  -0.2770550440538093    0.9399833784461503    0.5459148426702385 Hf
  -0.2770550440538096    1.2733167117794844    0.5459148426702383 Hf
  -0.6103883773871428    1.4955389340017065    0.5459148426702385 Hf
  -0.6103883773871428    1.8288722673350397    0.5459148426702385 Hf
  -0.6103883773871428    1.1622056006683730    0.5459148426702385 Hf
   0.0562782892795240    1.3844278228905949    0.5459148426702385 Hf
   0.0562782892795239    1.7177611562239286    0.5459148426702385 Hf
   0.0562782892795239    1.0510944895572618    0.5459148426702384 Hf
  -0.2501935014099522    1.5151873861198826    0.4850804297202608 Hf
  -0.2501935014099523    1.8485207194532165    0.4850804297202608 Hf
  -0.2501935014099521    1.1818540527865491    0.4850804297202609 Hf
  -0.5835268347432856    1.4040762750087716    0.4850804297202608 Hf
  -0.5835268347432857    1.7374096083421053    0.4850804297202608 Hf
  -0.5835268347432856    2.0707429416754382    0.4850804297202609 Hf
   0.0831398319233811    1.2929651638976607    0.4850804297202608 Hf
   0.0831398319233812    1.6262984972309937    0.4850804297202608 Hf
   0.0831398319233812    1.9596318305643270    0.4850804297202608 Hf
  -0.2160595319232612    1.6813694462214492    0.4885143243621725 Hf
  -0.2160595319232614    2.0147027795547827    0.4885143243621724 Hf
  -0.2160595319232613    1.3480361128881160    0.4885143243621724 Hf
  -0.5493928652565946    1.5702583351103381    0.4885143243621726 Hf
  -0.5493928652565945    1.9035916684436713    0.4885143243621725 Hf
  -0.5493928652565946    1.2369250017770050    0.4885143243621725 Hf
   0.1172738014100723    1.4591472239992269    0.4885143243621726 Hf
   0.1172738014100720    1.7924805573325606    0.4885143243621724 Hf
   0.1172738014100721    1.1258138906658937    0.4885143243621725 Hf
  -0.0670102365016362    1.4068603845334038    0.4940522376267668 Hf
  -0.0670102365016363    1.7401937178667370    0.4940522376267668 Hf
  -0.0670102365016365    2.0735270512000707    0.4940522376267666 Hf
  -0.4003435698349695    1.2957492734222928    0.4940522376267668 Hf
  -0.4003435698349696    1.6290826067556261    0.4940522376267668 Hf
  -0.4003435698349697    1.9624159400889596    0.4940522376267667 Hf
   0.2663230968316970    1.1846381623111815    0.4940522376267668 Hf
   0.2663230968316971    1.5179714956445147    0.4940522376267668 Hf
   0.2663230968316969    1.8513048289778486    0.4940522376267666 Hf
  -0.3992427968315772    1.7896964478079285    0.4795425164556665 Hf
  -0.3992427968315772    1.1230297811412615    0.4795425164556665 Hf
  -0.3992427968315774    1.4563631144745950    0.4795425164556664 Hf
  -0.7325761301649105    1.6785853366968173    0.4795425164556666 Hf
  -0.7325761301649105    2.0119186700301506    0.4795425164556665 Hf
  -0.7325761301649106    1.3452520033634841    0.4795425164556665 Hf
  -0.0659094634982437    1.5674742255857057    0.4795425164556666 Hf
  -0.0659094634982438    1.9008075589190396    0.4795425164556666 Hf
  -0.0659094634982438    1.2341408922523727    0.4795425164556666 Hf
   0.6956521739130436    0.2826086956521738    0.2463557780816455 Ti
   0.7391304347826089    0.4565217391304347    0.2463557780816455 Ti
   0.7826086956521739    0.6304347826086955    0.2463557780816455 Ti
   0.8260869565217392    0.8043478260869563    0.2463557780816455 Ti
   0.8695652173913045    0.9782608695652173    0.2463557780816455 Ti
   0.4347826086956523    0.2391304347826085    0.2463557780816455 Ti
   0.4782608695652175    0.4130434782608695    0.2463557780816455 Ti
   0.5217391304347828    0.5869565217391304    0.2463557780816455 Ti
   0.5652173913043478    0.7608695652173911    0.2463557780816455 Ti
   0.6086956521739130    0.9347826086956519    0.2463557780816455 Ti
   0.6521739130434784    0.1086956521739130    0.2463557780816455 Ti
   0.1739130434782609    0.1956521739130434    0.2463557780816455 Ti
   0.2173913043478261    0.3695652173913042    0.2463557780816455 Ti
   0.2608695652173914    0.5434782608695651    0.2463557780816455 Ti
   0.3043478260869565    0.7173913043478259    0.2463557780816455 Ti
   0.3478260869565217    0.8913043478260869    0.2463557780816455 Ti
   0.3913043478260870    0.0652173913043476    0.2463557780816455 Ti
   0.9130434782608697    0.1521739130434781    0.2463557780816455 Ti
   0.9565217391304348    0.3260869565217391    0.2463557780816455 Ti
   0.0000000000000000    0.4999999999999999    0.2463557780816455 Ti
   0.0434782608695653    0.6739130434782609    0.2463557780816455 Ti
   0.0869565217391305    0.8478260869565217    0.2463557780816455 Ti
   0.1304347826086957    0.0217391304347825    0.2463557780816455 Ti
   0.6956521739130436    0.2826086956521738    0.3295244760810572 Ti
   0.7391304347826088    0.4565217391304348    0.3295244760810572 Ti
   0.7826086956521738    0.6304347826086955    0.3295244760810572 Ti
   0.8260869565217392    0.8043478260869563    0.3295244760810572 Ti
   0.8695652173913045    0.9782608695652173    0.3295244760810572 Ti
   0.4347826086956523    0.2391304347826085    0.3295244760810572 Ti
   0.4782608695652175    0.4130434782608695    0.3295244760810572 Ti
   0.5217391304347828    0.5869565217391304    0.3295244760810572 Ti
   0.5652173913043479    0.7608695652173911    0.3295244760810572 Ti
   0.6086956521739131    0.9347826086956519    0.3295244760810572 Ti
   0.6521739130434784    0.1086956521739130    0.3295244760810572 Ti
   0.1739130434782610    0.1956521739130434    0.3295244760810572 Ti
   0.2173913043478262    0.3695652173913042    0.3295244760810572 Ti
   0.2608695652173914    0.5434782608695651    0.3295244760810572 Ti
   0.3043478260869565    0.7173913043478259    0.3295244760810572 Ti
   0.3478260869565217    0.8913043478260869    0.3295244760810572 Ti
   0.3913043478260870    0.0652173913043476    0.3295244760810572 Ti
   0.9130434782608697    0.1521739130434781    0.3295244760810572 Ti
   0.9565217391304349    0.3260869565217391    0.3295244760810572 Ti
   0.0000000000000000    0.4999999999999999    0.3295244760810572 Ti
   0.0434782608695653    0.6739130434782609    0.3295244760810572 Ti
   0.0869565217391305    0.8478260869565217    0.3295244760810572 Ti
   0.1304347826086957    0.0217391304347825    0.3295244760810572 Ti
   0.6956521739130436    0.2826086956521739    0.4126931740804690 Ti
   0.7391304347826088    0.4565217391304348    0.4126931740804690 Ti
   0.7826086956521739    0.6304347826086956    0.4126931740804690 Ti
   0.8260869565217392    0.8043478260869563    0.4126931740804690 Ti
   0.8695652173913045    0.9782608695652173    0.4126931740804690 Ti
   0.4347826086956523    0.2391304347826086    0.4126931740804690 Ti
   0.4782608695652175    0.4130434782608695    0.4126931740804690 Ti
   0.5217391304347828    0.5869565217391304    0.4126931740804690 Ti
   0.5652173913043480    0.7608695652173914    0.4126931740804690 Ti
   0.6086956521739132    0.9347826086956522    0.4126931740804690 Ti
   0.6521739130434784    0.1086956521739131    0.4126931740804690 Ti
   0.1739130434782609    0.1956521739130434    0.4126931740804690 Ti
   0.2173913043478262    0.3695652173913043    0.4126931740804690 Ti
   0.2608695652173914    0.5434782608695652    0.4126931740804690 Ti
   0.3043478260869565    0.7173913043478259    0.4126931740804690 Ti
   0.3478260869565217    0.8913043478260869    0.4126931740804690 Ti
   0.3913043478260870    0.0652173913043479    0.4126931740804690 Ti
   0.9130434782608698    0.1521739130434782    0.4126931740804690 Ti
   0.9565217391304349    0.3260869565217391    0.4126931740804690 Ti
   0.0000000000000001    0.4999999999999999    0.4126931740804690 Ti
   0.0434782608695653    0.6739130434782610    0.4126931740804690 Ti
   0.0869565217391305    0.8478260869565217    0.4126931740804690 Ti
   0.1304347826086958    0.0217391304347827    0.4126931740804690 Ti
   0.6739130434782611    0.1956521739130433    0.2463557780816455 O
   0.7173913043478263    0.3695652173913042    0.2463557780816455 O
   0.7608695652173915    0.5434782608695651    0.2463557780816455 O
   0.8043478260869567    0.7173913043478259    0.2463557780816455 O
   0.8478260869565220    0.8913043478260869    0.2463557780816455 O
   0.4130434782608697    0.1521739130434781    0.2463557780816455 O
   0.4565217391304348    0.3260869565217391    0.2463557780816455 O
   0.5000000000000001    0.4999999999999998    0.2463557780816455 O
   0.5434782608695652    0.6739130434782609    0.2463557780816455 O
   0.5869565217391304    0.8478260869565216    0.2463557780816455 O
   0.6304347826086958    0.0217391304347827    0.2463557780816455 O
   0.1521739130434784    0.1086956521739130    0.2463557780816455 O
   0.1956521739130435    0.2826086956521739    0.2463557780816455 O
   0.2391304347826087    0.4565217391304346    0.2463557780816455 O
   0.2826086956521739    0.6304347826086956    0.2463557780816455 O
   0.3260869565217391    0.8043478260869565    0.2463557780816455 O
   0.3695652173913044    0.9782608695652173    0.2463557780816455 O
   0.8913043478260870    0.0652173913043478    0.2463557780816455 O
   0.9347826086956522    0.2391304347826086    0.2463557780816455 O
   0.9782608695652174    0.4130434782608695    0.2463557780816455 O
   0.0217391304347826    0.5869565217391304    0.2463557780816455 O
   0.0652173913043478    0.7608695652173912    0.2463557780816455 O
   0.1086956521739131    0.9347826086956521    0.2463557780816455 O
   0.8043478260869568    0.2173913043478259    0.2463557780816455 O
   0.8478260869565217    0.3913043478260870    0.2463557780816455 O
   0.8913043478260869    0.5652173913043478    0.2463557780816455 O
   0.9347826086956523    0.7391304347826084    0.2463557780816455 O
   0.9782608695652176    0.9130434782608693    0.2463557780816455 O
   0.5434782608695654    0.1739130434782608    0.2463557780816455 O
   0.5869565217391304    0.3478260869565217    0.2463557780816455 O
   0.6304347826086957    0.5217391304347826    0.2463557780816455 O
   0.6739130434782609    0.6956521739130435    0.2463557780816455 O
   0.7173913043478262    0.8695652173913042    0.2463557780816455 O
   0.7608695652173912    0.0434782608695651    0.2463557780816455 O
   0.2826086956521740    0.1304347826086956    0.2463557780816455 O
   0.3260869565217392    0.3043478260869565    0.2463557780816455 O
   0.3695652173913044    0.4782608695652174    0.2463557780816455 O
   0.4130434782608696    0.6521739130434782    0.2463557780816455 O
   0.4565217391304348    0.8260869565217389    0.2463557780816455 O
   0.5000000000000000    0.9999999999999999    0.2463557780816455 O
   0.0217391304347826    0.0869565217391304    0.2463557780816455 O
   0.0652173913043479    0.2608695652173913    0.2463557780816455 O
   0.1086956521739131    0.4347826086956522    0.2463557780816455 O
   0.1521739130434783    0.6086956521739131    0.2463557780816455 O
   0.1956521739130435    0.7826086956521739    0.2463557780816455 O
   0.2391304347826087    0.9565217391304347    0.2463557780816455 O
   0.6956521739130436    0.2826086956521738    0.2047714290819397 O
   0.7391304347826089    0.4565217391304347    0.2047714290819397 O
   0.7826086956521739    0.6304347826086955    0.2047714290819397 O
   0.8260869565217392    0.8043478260869563    0.2047714290819397 O
   0.8695652173913045    0.9782608695652173    0.2047714290819397 O
   0.4347826086956523    0.2391304347826085    0.2047714290819397 O
   0.4782608695652175    0.4130434782608695    0.2047714290819397 O
   0.5217391304347828    0.5869565217391304    0.2047714290819397 O
   0.5652173913043478    0.7608695652173911    0.2047714290819397 O
   0.6086956521739130    0.9347826086956519    0.2047714290819397 O
   0.6521739130434784    0.1086956521739130    0.2047714290819397 O
   0.1739130434782609    0.1956521739130434    0.2047714290819397 O
   0.2173913043478262    0.3695652173913043    0.2047714290819397 O
   0.2608695652173914    0.5434782608695651    0.2047714290819397 O
   0.3043478260869565    0.7173913043478259    0.2047714290819397 O
   0.3478260869565217    0.8913043478260869    0.2047714290819397 O
   0.3913043478260870    0.0652173913043476    0.2047714290819397 O
   0.9130434782608697    0.1521739130434781    0.2047714290819397 O
   0.9565217391304348    0.3260869565217391    0.2047714290819397 O
   0.0000000000000000    0.5000000000000000    0.2047714290819397 O
   0.0434782608695653    0.6739130434782609    0.2047714290819397 O
   0.0869565217391305    0.8478260869565217    0.2047714290819397 O
   0.1304347826086957    0.0217391304347825    0.2047714290819397 O
   0.6739130434782611    0.1956521739130433    0.3295244760810572 O
   0.7173913043478262    0.3695652173913044    0.3295244760810572 O
   0.7608695652173914    0.5434782608695652    0.3295244760810572 O
   0.8043478260869567    0.7173913043478259    0.3295244760810572 O
   0.8478260869565220    0.8913043478260869    0.3295244760810572 O
   0.4130434782608697    0.1521739130434781    0.3295244760810572 O
   0.4565217391304349    0.3260869565217391    0.3295244760810572 O
   0.5000000000000002    0.5000000000000000    0.3295244760810572 O
   0.5434782608695653    0.6739130434782609    0.3295244760810572 O
   0.5869565217391305    0.8478260869565216    0.3295244760810572 O
   0.6304347826086958    0.0217391304347827    0.3295244760810572 O
   0.1521739130434784    0.1086956521739130    0.3295244760810572 O
   0.1956521739130436    0.2826086956521739    0.3295244760810572 O
   0.2391304347826088    0.4565217391304348    0.3295244760810572 O
   0.2826086956521739    0.6304347826086956    0.3295244760810572 O
   0.3260869565217392    0.8043478260869564    0.3295244760810572 O
   0.3695652173913044    0.9782608695652173    0.3295244760810572 O
   0.8913043478260870    0.0652173913043478    0.3295244760810572 O
   0.9347826086956523    0.2391304347826086    0.3295244760810572 O
   0.9782608695652175    0.4130434782608695    0.3295244760810572 O
   0.0217391304347827    0.5869565217391305    0.3295244760810572 O
   0.0652173913043479    0.7608695652173914    0.3295244760810572 O
   0.1086956521739131    0.9347826086956521    0.3295244760810572 O
   0.8043478260869568    0.2173913043478258    0.3295244760810572 O
   0.8478260869565217    0.3913043478260870    0.3295244760810572 O
   0.8913043478260869    0.5652173913043477    0.3295244760810572 O
   0.9347826086956523    0.7391304347826084    0.3295244760810572 O
   0.9782608695652176    0.9130434782608692    0.3295244760810572 O
   0.5434782608695654    0.1739130434782606    0.3295244760810572 O
   0.5869565217391304    0.3478260869565217    0.3295244760810572 O
   0.6304347826086957    0.5217391304347824    0.3295244760810572 O
   0.6739130434782609    0.6956521739130433    0.3295244760810572 O
   0.7173913043478261    0.8695652173913041    0.3295244760810572 O
   0.7608695652173912    0.0434782608695651    0.3295244760810572 O
   0.2826086956521740    0.1304347826086956    0.3295244760810572 O
   0.3260869565217392    0.3043478260869565    0.3295244760810572 O
   0.3695652173913044    0.4782608695652174    0.3295244760810572 O
   0.4130434782608696    0.6521739130434782    0.3295244760810572 O
   0.4565217391304348    0.8260869565217389    0.3295244760810572 O
   0.5000000000000000    0.9999999999999999    0.3295244760810572 O
   0.0217391304347827    0.0869565217391304    0.3295244760810572 O
   0.0652173913043479    0.2608695652173913    0.3295244760810572 O
   0.1086956521739131    0.4347826086956522    0.3295244760810572 O
   0.1521739130434783    0.6086956521739130    0.3295244760810572 O
   0.1956521739130435    0.7826086956521739    0.3295244760810572 O
   0.2391304347826087    0.9565217391304347    0.3295244760810572 O
   0.6956521739130436    0.2826086956521738    0.2879401270813514 O
   0.7391304347826089    0.4565217391304347    0.2879401270813514 O
   0.7826086956521739    0.6304347826086955    0.2879401270813514 O
   0.8260869565217392    0.8043478260869563    0.2879401270813514 O
   0.8695652173913045    0.9782608695652173    0.2879401270813514 O
   0.4347826086956523    0.2391304347826085    0.2879401270813514 O
   0.4782608695652175    0.4130434782608695    0.2879401270813514 O
   0.5217391304347828    0.5869565217391304    0.2879401270813514 O
   0.5652173913043479    0.7608695652173911    0.2879401270813514 O
   0.6086956521739131    0.9347826086956519    0.2879401270813514 O
   0.6521739130434784    0.1086956521739130    0.2879401270813514 O
   0.1739130434782610    0.1956521739130435    0.2879401270813514 O
   0.2173913043478262    0.3695652173913042    0.2879401270813514 O
   0.2608695652173914    0.5434782608695651    0.2879401270813514 O
   0.3043478260869565    0.7173913043478259    0.2879401270813514 O
   0.3478260869565217    0.8913043478260869    0.2879401270813514 O
   0.3913043478260870    0.0652173913043476    0.2879401270813514 O
   0.9130434782608697    0.1521739130434781    0.2879401270813514 O
   0.9565217391304349    0.3260869565217391    0.2879401270813514 O
   0.0000000000000000    0.4999999999999999    0.2879401270813514 O
   0.0434782608695653    0.6739130434782609    0.2879401270813514 O
   0.0869565217391305    0.8478260869565217    0.2879401270813514 O
   0.1304347826086957    0.0217391304347825    0.2879401270813514 O
   0.6739130434782611    0.1956521739130434    0.4126931740804690 O
   0.7173913043478262    0.3695652173913044    0.4126931740804690 O
   0.7608695652173914    0.5434782608695652    0.4126931740804690 O
   0.8043478260869567    0.7173913043478259    0.4126931740804690 O
   0.8478260869565220    0.8913043478260869    0.4126931740804690 O
   0.4130434782608698    0.1521739130434781    0.4126931740804690 O
   0.4565217391304349    0.3260869565217392    0.4126931740804690 O
   0.5000000000000002    0.5000000000000000    0.4126931740804690 O
   0.5434782608695653    0.6739130434782606    0.4126931740804690 O
   0.5869565217391305    0.8478260869565216    0.4126931740804690 O
   0.6304347826086957    0.0217391304347825    0.4126931740804690 O
   0.1521739130434784    0.1086956521739130    0.4126931740804690 O
   0.1956521739130436    0.2826086956521739    0.4126931740804690 O
   0.2391304347826088    0.4565217391304349    0.4126931740804690 O
   0.2826086956521740    0.6304347826086956    0.4126931740804690 O
   0.3260869565217392    0.8043478260869564    0.4126931740804690 O
   0.3695652173913044    0.9782608695652173    0.4126931740804690 O
   0.8913043478260870    0.0652173913043479    0.4126931740804690 O
   0.9347826086956523    0.2391304347826087    0.4126931740804690 O
   0.9782608695652175    0.4130434782608695    0.4126931740804690 O
   0.0217391304347827    0.5869565217391305    0.4126931740804690 O
   0.0652173913043479    0.7608695652173915    0.4126931740804690 O
   0.1086956521739131    0.9347826086956521    0.4126931740804690 O
   0.8043478260869568    0.2173913043478259    0.4126931740804690 O
   0.8478260869565217    0.3913043478260869    0.4126931740804690 O
   0.8913043478260870    0.5652173913043479    0.4126931740804690 O
   0.9347826086956523    0.7391304347826084    0.4126931740804690 O
   0.9782608695652176    0.9130434782608692    0.4126931740804690 O
   0.5434782608695654    0.1739130434782607    0.4126931740804690 O
   0.5869565217391305    0.3478260869565217    0.4126931740804690 O
   0.6304347826086957    0.5217391304347824    0.4126931740804690 O
   0.6739130434782610    0.6956521739130436    0.4126931740804690 O
   0.7173913043478262    0.8695652173913042    0.4126931740804690 O
   0.7608695652173914    0.0434782608695651    0.4126931740804690 O
   0.2826086956521740    0.1304347826086956    0.4126931740804690 O
   0.3260869565217392    0.3043478260869565    0.4126931740804690 O
   0.3695652173913044    0.4782608695652174    0.4126931740804690 O
   0.4130434782608696    0.6521739130434779    0.4126931740804690 O
   0.4565217391304349    0.8260869565217392    0.4126931740804690 O
   0.5000000000000001   -0.0000000000000000    0.4126931740804690 O
   0.0217391304347827    0.0869565217391304    0.4126931740804690 O
   0.0652173913043479    0.2608695652173913    0.4126931740804690 O
   0.1086956521739131    0.4347826086956522    0.4126931740804690 O
   0.1521739130434784    0.6086956521739130    0.4126931740804690 O
   0.1956521739130435    0.7826086956521739    0.4126931740804690 O
   0.2391304347826088    0.9565217391304349    0.4126931740804690 O
   0.6956521739130436    0.2826086956521739    0.3711088250807631 O
   0.7391304347826088    0.4565217391304348    0.3711088250807631 O
   0.7826086956521739    0.6304347826086956    0.3711088250807631 O
   0.8260869565217392    0.8043478260869563    0.3711088250807631 O
   0.8695652173913045    0.9782608695652173    0.3711088250807631 O
   0.4347826086956523    0.2391304347826086    0.3711088250807631 O
   0.4782608695652175    0.4130434782608696    0.3711088250807631 O
   0.5217391304347828    0.5869565217391304    0.3711088250807631 O
   0.5652173913043480    0.7608695652173914    0.3711088250807631 O
   0.6086956521739132    0.9347826086956522    0.3711088250807631 O
   0.6521739130434784    0.1086956521739131    0.3711088250807631 O
   0.1739130434782609    0.1956521739130434    0.3711088250807631 O
   0.2173913043478262    0.3695652173913043    0.3711088250807631 O
   0.2608695652173914    0.5434782608695652    0.3711088250807631 O
   0.3043478260869565    0.7173913043478259    0.3711088250807631 O
   0.3478260869565217    0.8913043478260869    0.3711088250807631 O
   0.3913043478260870    0.0652173913043479    0.3711088250807631 O
   0.9130434782608698    0.1521739130434782    0.3711088250807631 O
   0.9565217391304349    0.3260869565217391    0.3711088250807631 O
   0.0000000000000001    0.4999999999999999    0.3711088250807631 O
   0.0434782608695653    0.6739130434782610    0.3711088250807631 O
   0.0869565217391305    0.8478260869565217    0.3711088250807631 O
   0.1304347826086958    0.0217391304347827    0.3711088250807631 O
   0.1932460449240179    1.0282692556170734    0.7474182506681252 O
   0.1932460449240180    1.3616025889504064    0.7474182506681252 O
   0.1932460449240179    0.6949359222837399    0.7474182506681252 O
  -0.1400872884093155    0.9171581445059622    0.7474182506681251 O
  -0.1400872884093154    1.2504914778392955    0.7474182506681252 O
  -0.1400872884093154    0.5838248111726289    0.7474182506681252 O
   0.5265793782573513    0.8060470333948510    0.7474182506681252 O
   0.5265793782573513    1.1393803667281843    0.7474182506681252 O
   0.5265793782573513    0.4727137000615176    0.7474182506681252 O
   0.3180029439649111    0.7039163551633705    0.7571551131308835 O
   0.3180029439649111    1.0372496884967040    0.7571551131308835 O
   0.3180029439649111    0.3705830218300372    0.7571551131308835 O
  -0.0153303893684223    0.5928052440522595    0.7571551131308835 O
  -0.0153303893684223    0.9261385773855927    0.7571551131308835 O
  -0.0153303893684222    1.2594719107189261    0.7571551131308835 O
   0.6513362772982444    0.4816941329411483    0.7571551131308835 O
   0.6513362772982445    0.8150274662744817    0.7571551131308835 O
   0.6513362772982445    1.1483607996078151    0.7571551131308835 O
   0.4169983739203655    0.7720275898366202    0.7784271539025732 O
   0.4169983739203655    1.1053609231699533    0.7784271539025732 O
   0.4169983739203655    0.4386942565032867    0.7784271539025732 O
   0.0836650405870321    0.6609164787255090    0.7784271539025732 O
   0.0836650405870321    0.9942498120588422    0.7784271539025732 O
   0.0836650405870321    0.3275831453921756    0.7784271539025732 O
   0.7503317072536988    0.5498053676143978    0.7784271539025732 O
   0.7503317072536988    0.8831387009477312    0.7784271539025732 O
   0.7503317072536988    1.2164720342810649    0.7784271539025732 O
   0.0942506149685636    0.9601580209438236    0.7261462098964354 O
   0.0942506149685636    1.2934913542771571    0.7261462098964354 O
   0.0942506149685636    0.6268246876104903    0.7261462098964354 O
  -0.2390827183647699    0.8490469098327127    0.7261462098964352 O
  -0.2390827183647697    1.1823802431660460    0.7261462098964354 O
  -0.2390827183647697    0.5157135764993792    0.7261462098964354 O
   0.4275839483018970    0.7379357987216015    0.7261462098964353 O
   0.4275839483018971    1.0712691320549348    0.7261462098964353 O
   0.4275839483018971    1.4046024653882683    0.7261462098964354 O
   0.3752554493451930    0.9186224076000664    0.7704958555699563 O
   0.3752554493451931    1.2519557409333997    0.7704958555699563 O
   0.3752554493451931    0.5852890742667330    0.7704958555699563 O
   0.0419221160118597    0.8075112964889554    0.7704958555699563 O
   0.0419221160118597    1.1408446298222885    0.7704958555699563 O
   0.0419221160118598    0.4741779631556219    0.7704958555699565 O
   0.7085887826785264    0.6964001853778441    0.7704958555699563 O
   0.7085887826785265    1.0297335187111776    0.7704958555699563 O
   0.7085887826785267    0.3630668520445107    0.7704958555699565 O
   0.1359935395437360    0.8135632031803774    0.7340775082290524 O
   0.1359935395437360    1.1468965365137107    0.7340775082290524 O
   0.1359935395437360    0.4802298698470437    0.7340775082290524 O
  -0.1973397937895973    0.7024520920692662    0.7340775082290524 O
  -0.1973397937895973    1.0357854254025995    0.7340775082290524 O
  -0.1973397937895973    1.3691187587359328    0.7340775082290524 O
   0.4693268728770694    0.5913409809581550    0.7340775082290523 O
   0.4693268728770694    0.9246743142914884    0.7340775082290524 O
   0.4693268728770693    1.2580076476248216    0.7340775082290523 O
   0.2006036839327503    0.8880542623244713    0.7661583539238285 O
   0.2006036839327505    1.2213875956578042    0.7661583539238287 O
   0.2006036839327504    0.5547209289911378    0.7661583539238286 O
  -0.1327296494005830    0.7769431512133602    0.7661583539238286 O
  -0.1327296494005830    1.1102764845466935    0.7661583539238286 O
  -0.1327296494005830    0.4436098178800267    0.7661583539238287 O
   0.5339370172660837    0.6658320401022491    0.7661583539238286 O
   0.5339370172660838    0.9991653734355824    0.7661583539238287 O
   0.5339370172660838    0.3324987067689156    0.7661583539238287 O
   0.3106453049561786    0.8441313484559726    0.7384150098751799 O
   0.3106453049561787    1.1774646817893060    0.7384150098751799 O
   0.3106453049561788    0.5107980151226389    0.7384150098751799 O
  -0.0226880283771547    0.7330202373448614    0.7384150098751799 O
  -0.0226880283771546    1.0663535706781948    0.7384150098751799 O
  -0.0226880283771546    1.3996869040115281    0.7384150098751801 O
   0.6439786382895121    0.6219091262337503    0.7384150098751799 O
   0.6439786382895121    0.9552424595670835    0.7384150098751799 O
   0.6439786382895122    1.2885757929004169    0.7384150098751799 O
   0.0710582921462502    1.2113156583121842    0.6810459244535533 O
   0.0710582921462500    1.5446489916455177    0.6810459244535532 O
   0.0710582921462502    0.8779823249788505    0.6810459244535532 O
  -0.2622750411870832    1.1002045472010731    0.6810459244535532 O
  -0.2622750411870833    1.4335378805344066    0.6810459244535532 O
  -0.2622750411870833    0.7668712138677397    0.6810459244535532 O
   0.4043916254795835    0.9890934360899620    0.6810459244535532 O
   0.4043916254795836    1.3224267694232956    0.6810459244535532 O
   0.4043916254795836    0.6557601027566285    0.6810459244535533 O
   0.1958151911871432    0.8869627578584816    0.6907827869163116 O
   0.1958151911871433    1.2202960911918150    0.6907827869163116 O
   0.1958151911871432    0.5536294245251482    0.6907827869163116 O
  -0.1375181421461901    0.7758516467473705    0.6907827869163116 O
  -0.1375181421461901    1.1091849800807039    0.6907827869163116 O
  -0.1375181421461901    1.4425183134140371    0.6907827869163116 O
   0.5291485245204767    0.6647405356362592    0.6907827869163116 O
   0.5291485245204766    0.9980738689695929    0.6907827869163115 O
   0.5291485245204767    1.3314072023029262    0.6907827869163116 O
   0.2948106211425977    0.9550739925317310    0.7120548276880013 O
   0.2948106211425977    1.2884073258650646    0.7120548276880013 O
   0.2948106211425977    0.6217406591983978    0.7120548276880013 O
  -0.0385227121907357    0.8439628814206199    0.7120548276880013 O
  -0.0385227121907358    1.1772962147539534    0.7120548276880013 O
  -0.0385227121907358    0.5106295480872867    0.7120548276880013 O
   0.6281439544759311    0.7328517703095088    0.7120548276880013 O
   0.6281439544759310    1.0661851036428422    0.7120548276880013 O
   0.6281439544759309    1.3995184369761757    0.7120548276880013 O
  -0.0279371378092042    1.1432044236389345    0.6597738836818634 O
  -0.0279371378092042    1.4765377569722680    0.6597738836818634 O
  -0.0279371378092041    0.8098710903056011    0.6597738836818635 O
  -0.3612704711425375    1.0320933125278235    0.6597738836818634 O
  -0.3612704711425376    1.3654266458611568    0.6597738836818634 O
  -0.3612704711425375    0.6987599791944901    0.6597738836818634 O
   0.3053961955241292    0.9209822014167124    0.6597738836818634 O
   0.3053961955241292    1.2543155347500461    0.6597738836818634 O
   0.3053961955241293    1.5876488680833791    0.6597738836818634 O
   0.2530676965674253    1.1016688102951773    0.7041235293553844 O
   0.2530676965674254    1.4350021436285108    0.7041235293553845 O
   0.2530676965674253    0.7683354769618440    0.7041235293553844 O
  -0.0802656367659081    0.9905576991840663    0.7041235293553845 O
  -0.0802656367659081    1.3238910325173994    0.7041235293553845 O
  -0.0802656367659080    0.6572243658507327    0.7041235293553845 O
   0.5864010299007586    0.8794465880729552    0.7041235293553844 O
   0.5864010299007588    1.2127799214062884    0.7041235293553845 O
   0.5864010299007587    0.5461132547396218    0.7041235293553845 O
   0.0138057867659682    0.9966096058754884    0.6677051820144804 O
   0.0138057867659682    1.3299429392088218    0.6677051820144804 O
   0.0138057867659682    0.6632762725421550    0.6677051820144804 O
  -0.3195275465673652    0.8854984947643773    0.6677051820144804 O
  -0.3195275465673652    1.2188318280977104    0.6677051820144804 O
  -0.3195275465673650    1.5521651614310439    0.6677051820144804 O
   0.3471391200993016    0.7743873836532660    0.6677051820144804 O
   0.3471391200993015    1.1077207169865995    0.6677051820144804 O
   0.3471391200993016    1.4410540503199329    0.6677051820144804 O
   0.0784159311549827    1.0711006650195820    0.6997860277092567 O
   0.0784159311549825    1.4044339983529155    0.6997860277092567 O
   0.0784159311549825    0.7377673316862488    0.6997860277092567 O
  -0.2549174021783508    0.9599895539084711    0.6997860277092567 O
  -0.2549174021783508    1.2933228872418046    0.6997860277092567 O
  -0.2549174021783507    0.6266562205751377    0.6997860277092567 O
   0.4117492644883159    0.8488784427973599    0.6997860277092567 O
   0.4117492644883159    1.1822117761306934    0.6997860277092567 O
   0.4117492644883159    0.5155451094640268    0.6997860277092567 O
   0.1884575521784108    1.0271777511510836    0.6720426836606082 O
   0.1884575521784109    1.3605110844844168    0.6720426836606082 O
   0.1884575521784109    0.6938444178177501    0.6720426836606082 O
  -0.1448757811549224    0.9160666400399724    0.6720426836606082 O
  -0.1448757811549224    1.2493999733733057    0.6720426836606082 O
  -0.1448757811549223    1.5827333067066387    0.6720426836606082 O
   0.5217908855117442    0.8049555289288612    0.6720426836606080 O
   0.5217908855117442    1.1382888622621945    0.6720426836606082 O
   0.5217908855117441    1.4716221955955280    0.6720426836606082 O
  -0.0511294606315178    1.3943620610072953    0.6146735982389813 O
  -0.0511294606315177    1.7276953943406286    0.6146735982389813 O
  -0.0511294606315179    1.0610287276739621    0.6146735982389812 O
  -0.3844627939648512    1.2832509498961844    0.6146735982389813 O
  -0.3844627939648510    1.6165842832295174    0.6146735982389813 O
  -0.3844627939648509    0.9499176165628506    0.6146735982389814 O
   0.2822038727018156    1.1721398387850732    0.6146735982389813 O
   0.2822038727018157    1.5054731721184063    0.6146735982389813 O
   0.2822038727018156    0.8388065054517400    0.6146735982389813 O
   0.0736274384093754    1.0700091605535926    0.6244104607017396 O
   0.0736274384093754    1.4033424938869259    0.6244104607017397 O
   0.0736274384093756    0.7366758272202591    0.6244104607017398 O
  -0.2597058949239581    0.9588980494424817    0.6244104607017396 O
  -0.2597058949239580    1.2922313827758147    0.6244104607017397 O
  -0.2597058949239578    1.6255647161091482    0.6244104607017398 O
   0.4069607717427087    0.8477869383313705    0.6244104607017396 O
   0.4069607717427088    1.1811202716647038    0.6244104607017396 O
   0.4069607717427087    1.5144536049980368    0.6244104607017396 O
   0.1726228683648298    1.1381203952268422    0.6456825014734293 O
   0.1726228683648298    1.4714537285601752    0.6456825014734293 O
   0.1726228683648298    0.8047870618935089    0.6456825014734293 O
  -0.1607104649685036    1.0270092841157310    0.6456825014734294 O
  -0.1607104649685036    1.3603426174490645    0.6456825014734294 O
  -0.1607104649685036    0.6936759507823976    0.6456825014734294 O
   0.5059562016981631    0.9158981730046198    0.6456825014734294 O
   0.5059562016981630    1.2492315063379533    0.6456825014734293 O
   0.5059562016981631    1.5825648396712868    0.6456825014734294 O
  -0.1501248905869719    1.3262508263340458    0.5934015574672915 O
  -0.1501248905869720    1.6595841596673790    0.5934015574672915 O
  -0.1501248905869719    0.9929174930007119    0.5934015574672915 O
  -0.4834582239203052    1.2151397152229346    0.5934015574672915 O
  -0.4834582239203054    1.5484730485562679    0.5934015574672915 O
  -0.4834582239203053    0.8818063818896013    0.5934015574672915 O
   0.1832084427463614    1.1040286041118235    0.5934015574672915 O
   0.1832084427463614    1.4373619374451567    0.5934015574672915 O
   0.1832084427463616    1.7706952707784900    0.5934015574672915 O
   0.1308799437896573    1.2847152129902888    0.6377512031408125 O
   0.1308799437896573    1.6180485463236221    0.6377512031408125 O
   0.1308799437896574    0.9513818796569552    0.6377512031408125 O
  -0.2024533895436761    1.1736041018791776    0.6377512031408125 O
  -0.2024533895436761    1.5069374352125109    0.6377512031408124 O
  -0.2024533895436759    0.8402707685458439    0.6377512031408125 O
   0.4642132771229908    1.0624929907680665    0.6377512031408125 O
   0.4642132771229907    1.3958263241014000    0.6377512031408125 O
   0.4642132771229908    0.7291596574347330    0.6377512031408125 O
  -0.1083819660117997    1.1796560085705994    0.6013328557999085 O
  -0.1083819660117997    1.5129893419039329    0.6013328557999085 O
  -0.1083819660117996    0.8463226752372661    0.6013328557999085 O
  -0.4417152993451330    1.0685448974594884    0.6013328557999085 O
  -0.4417152993451330    1.4018782307928217    0.6013328557999085 O
  -0.4417152993451329    1.7352115641261550    0.6013328557999086 O
   0.2249513673215337    0.9574337863483772    0.6013328557999085 O
   0.2249513673215337    1.2907671196817105    0.6013328557999085 O
   0.2249513673215338    1.6241004530150436    0.6013328557999085 O
  -0.0437718216227853    1.2541470677146933    0.6334137014946848 O
  -0.0437718216227854    1.5874804010480268    0.6334137014946848 O
  -0.0437718216227853    0.9208137343813598    0.6334137014946848 O
  -0.3771051549561186    1.1430359566035824    0.6334137014946848 O
  -0.3771051549561187    1.4763692899369156    0.6334137014946848 O
  -0.3771051549561186    0.8097026232702488    0.6334137014946848 O
   0.2895615117105481    1.0319248454924710    0.6334137014946848 O
   0.2895615117105479    1.3652581788258045    0.6334137014946848 O
   0.2895615117105481    0.6985915121591378    0.6334137014946848 O
   0.0662697994006429    1.2102241538461946    0.6056703574460360 O
   0.0662697994006430    1.5435574871795279    0.6056703574460360 O
   0.0662697994006430    0.8768908205128612    0.6056703574460363 O
  -0.2670635339326903    1.0991130427350835    0.6056703574460363 O
  -0.2670635339326904    1.4324463760684167    0.6056703574460363 O
  -0.2670635339326904    1.7657797094017502    0.6056703574460363 O
   0.3996031327339763    0.9880019316239724    0.6056703574460360 O
   0.3996031327339762    1.3213352649573060    0.6056703574460360 O
   0.3996031327339764    1.6546685982906393    0.6056703574460363 O
  -0.1733172134092857    1.5774084637024064    0.5483012720244094 O
  -0.1733172134092854    1.9107417970357394    0.5483012720244094 O
  -0.1733172134092854    1.2440751303690725    0.5483012720244095 O
  -0.5066505467426189    1.4662973525912950    0.5483012720244094 O
  -0.5066505467426188    1.7996306859246285    0.5483012720244094 O
  -0.5066505467426188    1.1329640192579615    0.5483012720244095 O
   0.1600161199240478    1.3551862414801839    0.5483012720244094 O
   0.1600161199240478    1.6885195748135171    0.5483012720244094 O
   0.1600161199240480    1.0218529081468508    0.5483012720244094 O
  -0.0485603143683924    1.2530555632487035    0.5580381344871677 O
  -0.0485603143683922    1.5863888965820370    0.5580381344871678 O
  -0.0485603143683923    0.9197222299153703    0.5580381344871678 O
  -0.3818936477017258    1.1419444521375925    0.5580381344871678 O
  -0.3818936477017256    1.4752777854709258    0.5580381344871678 O
  -0.3818936477017256    1.8086111188042593    0.5580381344871679 O
   0.2847730189649410    1.0308333410264814    0.5580381344871677 O
   0.2847730189649409    1.3641666743598146    0.5580381344871677 O
   0.2847730189649409    1.6975000076931483    0.5580381344871677 O
   0.0504351155870620    1.3211667979219532    0.5793101752588574 O
   0.0504351155870622    1.6545001312552865    0.5793101752588576 O
   0.0504351155870620    0.9878334645886198    0.5793101752588574 O
  -0.2828982177462714    1.2100556868108423    0.5793101752588575 O
  -0.2828982177462713    1.5433890201441753    0.5793101752588575 O
  -0.2828982177462714    0.8767223534775086    0.5793101752588575 O
   0.3837684489203952    1.0989445756997311    0.5793101752588574 O
   0.3837684489203954    1.4322779090330642    0.5793101752588575 O
   0.3837684489203952    1.7656112423663977    0.5793101752588574 O
  -0.2723126433647398    1.5092972290291566    0.5270292312527196 O
  -0.2723126433647398    1.8426305623624901    0.5270292312527196 O
  -0.2723126433647398    1.1759638956958234    0.5270292312527196 O
  -0.6056459766980732    1.3981861179180457    0.5270292312527196 O
  -0.6056459766980731    1.7315194512513790    0.5270292312527196 O
  -0.6056459766980730    1.0648527845847122    0.5270292312527198 O
   0.0610206899685936    1.2870750068069343    0.5270292312527196 O
   0.0610206899685935    1.6204083401402678    0.5270292312527196 O
   0.0610206899685937    1.9537416734736011    0.5270292312527196 O
   0.0086921910118896    1.4677616156853994    0.5713788769262407 O
   0.0086921910118895    1.8010949490187331    0.5713788769262406 O
   0.0086921910118895    1.1344282823520664    0.5713788769262405 O
  -0.3246411423214438    1.3566505045742885    0.5713788769262407 O
  -0.3246411423214438    1.6899838379076217    0.5713788769262406 O
  -0.3246411423214437    1.0233171712409548    0.5713788769262407 O
   0.3420255243452230    1.2455393934631773    0.5713788769262406 O
   0.3420255243452229    1.5788727267965108    0.5713788769262405 O
   0.3420255243452230    0.9122060601298440    0.5713788769262407 O
  -0.2305697187895675    1.3627024112657105    0.5349605295853365 O
  -0.2305697187895673    1.6960357445990437    0.5349605295853367 O
  -0.2305697187895676    1.0293690779323772    0.5349605295853365 O
  -0.5639030521229008    1.2515913001545993    0.5349605295853366 O
  -0.5639030521229008    1.5849246334879328    0.5349605295853366 O
  -0.5639030521229008    1.9182579668212660    0.5349605295853366 O
   0.1027636145437659    1.1404801890434884    0.5349605295853365 O
   0.1027636145437659    1.4738135223768216    0.5349605295853365 O
   0.1027636145437659    1.8071468557101549    0.5349605295853365 O
  -0.1659595744005532    1.4371934704098044    0.5670413752801129 O
  -0.1659595744005532    1.7705268037431376    0.5670413752801129 O
  -0.1659595744005534    1.1038601370764711    0.5670413752801127 O
  -0.4992929077338865    1.3260823592986932    0.5670413752801129 O
  -0.4992929077338865    1.6594156926320267    0.5670413752801129 O
  -0.4992929077338865    0.9927490259653599    0.5670413752801129 O
   0.1673737589327802    1.2149712481875823    0.5670413752801129 O
   0.1673737589327801    1.5483045815209153    0.5670413752801129 O
   0.1673737589327801    0.8816379148542491    0.5670413752801128 O
  -0.0559179533771249    1.3932705565413055    0.5392980312314641 O
  -0.0559179533771249    1.7266038898746390    0.5392980312314642 O
  -0.0559179533771251    1.0599372232079729    0.5392980312314640 O
  -0.3892512867104582    1.2821594454301946    0.5392980312314642 O
  -0.3892512867104582    1.6154927787635278    0.5392980312314642 O
  -0.3892512867104582    1.9488261120968613    0.5392980312314644 O
   0.2774153799562085    1.1710483343190834    0.5392980312314641 O
   0.2774153799562085    1.5043816676524169    0.5392980312314641 O
   0.2774153799562084    1.8377150009857504    0.5392980312314641 O
  -0.2955049661870532    1.7604548663975172    0.4819289458098375 O
  -0.2955049661870531    2.0937881997308501    0.4819289458098376 O
  -0.2955049661870535    1.4271215330641840    0.4819289458098374 O
  -0.6288382995203865    1.6493437552864061    0.4819289458098375 O
  -0.6288382995203866    1.9826770886197393    0.4819289458098376 O
  -0.6288382995203864    1.3160104219530726    0.4819289458098376 O
   0.0378283671462800    1.5382326441752949    0.4819289458098375 O
   0.0378283671462801    1.8715659775086282    0.4819289458098375 O
   0.0378283671462801    1.2048993108419617    0.4819289458098375 O
  -0.1707480671461603    1.4361019659438148    0.4916658082725958 O
  -0.1707480671461601    1.7694352992771480    0.4916658082725959 O
  -0.1707480671461605    1.1027686326104815    0.4916658082725957 O
  -0.5040814004794937    1.3249908548327038    0.4916658082725958 O
  -0.5040814004794936    1.6583241881660371    0.4916658082725959 O
  -0.5040814004794936    1.9916575214993704    0.4916658082725958 O
   0.1625852661871730    1.2138797437215927    0.4916658082725957 O
   0.1625852661871730    1.5472130770549259    0.4916658082725957 O
   0.1625852661871729    1.8805464103882594    0.4916658082725957 O
  -0.0717526371907059    1.5042132006170643    0.5129378490442855 O
  -0.0717526371907056    1.8375465339503976    0.5129378490442855 O
  -0.0717526371907057    1.1708798672837304    0.5129378490442857 O
  -0.4050859705240393    1.3931020895059532    0.5129378490442855 O
  -0.4050859705240391    1.7264354228392864    0.5129378490442857 O
  -0.4050859705240391    1.0597687561726197    0.5129378490442857 O
   0.2615806961426275    1.2819909783948420    0.5129378490442855 O
   0.2615806961426276    1.6153243117281753    0.5129378490442855 O
   0.2615806961426277    1.9486576450615085    0.5129378490442855 O
  -0.3945003961425075    1.6923436317242677    0.4606569050381478 O
  -0.3945003961425076    2.0256769650576008    0.4606569050381477 O
  -0.3945003961425077    1.3590102983909342    0.4606569050381477 O
  -0.7278337294758409    1.5812325206131566    0.4606569050381478 O
  -0.7278337294758409    1.9145658539464898    0.4606569050381478 O
  -0.7278337294758407    1.2478991872798231    0.4606569050381478 O
  -0.0611670628091743    1.4701214095020454    0.4606569050381477 O
  -0.0611670628091740    1.8034547428353784    0.4606569050381478 O
  -0.0611670628091743    2.1367880761687124    0.4606569050381477 O
  -0.1134955617658782    1.6508080183805105    0.5050065507116687 O
  -0.1134955617658780    1.9841413517138435    0.5050065507116688 O
  -0.1134955617658782    1.3174746850471772    0.5050065507116688 O
  -0.4468288950992115    1.5396969072693996    0.5050065507116687 O
  -0.4468288950992114    1.8730302406027326    0.5050065507116688 O
  -0.4468288950992114    1.2063635739360656    0.5050065507116688 O
   0.2198377715674552    1.4285857961582882    0.5050065507116688 O
   0.2198377715674553    1.7619191294916214    0.5050065507116687 O
   0.2198377715674552    1.0952524628249551    0.5050065507116687 O
  -0.3527574715673353    1.5457488139608215    0.4685882033707646 O
  -0.3527574715673354    1.8790821472941550    0.4685882033707645 O
  -0.3527574715673353    1.2124154806274881    0.4685882033707646 O
  -0.6860908049006686    1.4346377028497104    0.4685882033707646 O
  -0.6860908049006686    1.7679710361830439    0.4685882033707646 O
  -0.6860908049006686    2.1013043695163769    0.4685882033707647 O
  -0.0194241382340019    1.3235265917385992    0.4685882033707645 O
  -0.0194241382340020    1.6568599250719325    0.4685882033707646 O
  -0.0194241382340020    1.9901932584052660    0.4685882033707646 O
  -0.2881473271783210    1.6202398731049155    0.5006690490655410 O
  -0.2881473271783209    1.9535732064382487    0.5006690490655410 O
  -0.2881473271783211    1.2869065397715820    0.5006690490655410 O
  -0.6214806605116543    1.5091287619938043    0.5006690490655410 O
  -0.6214806605116543    1.8424620953271376    0.5006690490655410 O
  -0.6214806605116544    1.1757954286604708    0.5006690490655410 O
   0.0451860061550123    1.3980176508826931    0.5006690490655410 O
   0.0451860061550124    1.7313509842160264    0.5006690490655410 O
   0.0451860061550124    1.0646843175493599    0.5006690490655409 O
  -0.1781057061548927    1.5763169592364166    0.4729257050168923 O
  -0.1781057061548928    1.9096502925697503    0.4729257050168922 O
  -0.1781057061548926    1.2429836259030831    0.4729257050168924 O
  -0.5114390394882260    1.4652058481253056    0.4729257050168924 O
  -0.5114390394882260    1.7985391814586389    0.4729257050168924 O
  -0.5114390394882259    2.1318725147919722    0.4729257050168924 O
   0.1552276271784407    1.3540947370141945    0.4729257050168923 O
   0.1552276271784407    1.6874280703475280    0.4729257050168924 O
   0.1552276271784407    2.0207614036808614    0.4729257050168924 O
