810
Lattice="17.43775251573436 0.0 1.1e-15 3.4875505031468674 19.181527767307795 1.2e-15 0.0 0.0 46.907058570379675" Properties=species:S:1:pos:R:3:move_mask:L:1 pbc="T T T"
Sr      13.95022428      15.69396844      11.96943225  F
Sr      12.20644903      19.18151895      11.96943225  F
Sr      12.20644903      10.46264269      11.96943225  F
Sr      10.46267377      13.95019319      11.96943225  F
Sr       8.71889852      17.43774370      11.96943225  F
Sr      10.46267377       5.23131693      11.96943225  F
Sr       8.71889852       8.71886744      11.96943225  F
Sr       6.97512327      12.20641794      11.96943225  F
Sr       5.23134802      15.69396844      11.96943225  F
Sr       3.48757277      19.18151895      11.96943225  F
Sr       6.97512327       3.48754168      11.96943225  F
Sr       5.23134802       6.97509219      11.96943225  F
Sr       3.48757277      10.46264269      11.96943225  F
Sr      19.18155003      13.95019319      11.96943225  F
Sr      17.43777478      17.43774370      11.96943225  F
Sr       3.48757277       1.74376643      11.96943225  F
Sr       1.74379752       5.23131693      11.96943225  F
Sr      17.43777478       8.71886744      11.96943225  F
Sr      15.69399953      12.20641794      11.96943225  F
Sr      15.69399953       3.48754168      11.96943225  F
Sr      13.95022428       6.97509219      11.96943225  F
Sr      12.20644903       1.74376643      11.96943225  F
Sr      13.95022428      15.69396844      15.86863225  T
Sr      12.20644903      19.18151895      15.86863225  T
Sr      12.20644903      10.46264269      15.86863225  T
Sr      10.46267377      13.95019319      15.86863225  T
Sr       8.71889852      17.43774370      15.86863225  T
Sr      10.46267377       5.23131693      15.86863225  T
Sr       8.71889852       8.71886744      15.86863225  T
Sr       6.97512327      12.20641794      15.86863225  T
Sr       5.23134802      15.69396844      15.86863225  T
Sr       3.48757277      19.18151895      15.86863225  T
Sr       6.97512327       3.48754168      15.86863225  T
Sr       5.23134802       6.97509219      15.86863225  T
Sr       3.48757277      10.46264269      15.86863225  T
Sr      19.18155003      13.95019319      15.86863225  T
Sr      17.43777478      17.43774370      15.86863225  T
Sr       3.48757277       1.74376643      15.86863225  T
Sr       1.74379752       5.23131693      15.86863225  T
Sr      17.43777478       8.71886744      15.86863225  T
Sr      15.69399953      12.20641794      15.86863225  T
Sr      15.69399953       3.48754168      15.86863225  T
Sr      13.95022428       6.97509219      15.86863225  T
Sr      12.20644903       1.74376643      15.86863225  T
Sr      13.95022428      15.69396844      19.76783225  T
Sr      12.20644903      19.18151895      19.76783225  T
Sr      12.20644903      10.46264269      19.76783225  T
Sr      10.46267377      13.95019319      19.76783225  T
Sr       8.71889852      17.43774370      19.76783225  T
Sr      10.46267377       5.23131693      19.76783225  T
Sr       8.71889852       8.71886744      19.76783225  T
Sr       6.97512327      12.20641794      19.76783225  T
Sr       5.23134802      15.69396844      19.76783225  T
Sr       3.48757277      19.18151895      19.76783225  T
Sr       6.97512327       3.48754168      19.76783225  T
Sr       5.23134802       6.97509219      19.76783225  T
Sr       3.48757277      10.46264269      19.76783225  T
Sr      19.18155003      13.95019319      19.76783225  T
Sr      17.43777478      17.43774370      19.76783225  T
Sr       3.48757277       1.74376643      19.76783225  T
Sr       1.74379752       5.23131693      19.76783225  T
Sr      17.43777478       8.71886744      19.76783225  T
Sr      15.69399953      12.20641794      19.76783225  T
Sr      15.69399953       3.48754168      19.76783225  T
Sr      13.95022428       6.97509219      19.76783225  T
Sr      12.20644903       1.74376643      19.76783225  T
Hf      13.47857731       5.83832787      35.61881154  T
Hf      18.70990307      10.63370981      35.61881154  T
Hf       7.37536393       8.23601884      35.61881154  T
Hf      17.83801544      17.82678273      35.61881154  T
Hf       6.50347631      15.42909176      35.61881154  T
Hf      12.60668969      13.03140078      35.61881154  T
Hf       2.14403818       3.44063690      35.61881154  T
Hf       8.24725156       1.04294593      35.61881154  T
Hf      16.41783258       3.99778479      35.78463008  T
Hf       4.21140582       8.79316673      35.78463008  T
Hf      10.31461920       6.39547576      35.78463008  T
Hf       3.33951819      15.98623964      35.78463008  T
Hf       9.44273158      13.58854867      35.78463008  T
Hf      15.54594496      11.19085770      35.78463008  T
Hf       5.08329345       1.60009382      35.78463008  T
Hf      14.67405733      18.38393062      35.78463008  T
Hf      10.86697073       3.10150594      36.03513202  T
Hf      16.09829648       7.89688789      36.03513202  T
Hf       4.76375735       5.49919692      36.03513202  T
Hf      15.22640886      15.08996080      36.03513202  T
Hf       3.89186972      12.69226983      36.03513202  T
Hf       9.99508310      10.29457886      36.03513202  T
Hf      16.97018411       0.70381497      36.03513202  T
Hf       9.12319548      17.48765177      36.03513202  T
Hf       1.59170316       6.73460187      35.36831044  T
Hf       6.82302892      11.52998381      35.36831044  T
Hf      12.92624230       9.13229284      35.36831044  T
Hf       5.95114129      18.72305673      35.36831044  T
Hf      12.05435467      16.32536575      35.36831044  T
Hf      18.15756805      13.92767478      35.36831044  T
Hf       7.69491654       4.33691090      35.36831044  T
Hf      13.79812992       1.93921993      35.36831044  T
Hf      17.26284076       6.87354006      32.50412888  T
Hf       5.05641400      11.66892200      32.50412888  T
Hf      11.15962738       9.27123103      32.50412888  T
Hf       4.18452638      18.86199491      32.50412888  T
Hf      10.28773976      16.46430394      32.50412888  T
Hf      16.39095314      14.06661297      32.50412888  T
Hf       5.92830163       4.47584908      32.50412888  T
Hf      12.03151501       2.07815811      32.50412888  T
Hf       2.76434351       5.03299697      32.66994742  T
Hf       7.99566927       9.82837892      32.66994742  T
Hf      14.09888265       7.43068794      32.66994742  T
Hf       7.12378164      17.02145183      32.66994742  T
Hf      13.22699502      14.62376086      32.66994742  T
Hf      19.33020840      12.22606989      32.66994742  T
Hf       8.86755689       2.63530600      32.66994742  T
Hf      14.97077027       0.23761503      32.66994742  T
Hf      14.65123418       4.13671813      32.92044936  T
Hf       2.44480742       8.93210007      32.92044936  T
Hf       8.54802080       6.53440910      32.92044936  T
Hf      19.01067231      16.12517298      32.92044936  T
Hf       7.67613317      13.72748201      32.92044936  T
Hf      13.77934655      11.32979104      32.92044936  T
Hf       3.31669504       1.73902716      32.92044936  T
Hf      12.90745893      18.52286395      32.92044936  T
Hf       5.37596661       7.76981405      32.25362777  T
Hf      10.60729237      12.56519600      32.25362777  T
Hf      16.71050575      10.16750503      32.25362777  T
Hf       6.24785424       0.57674114      32.25362777  T
Hf      15.83861812      17.36057794      32.25362777  T
Hf       4.50407898      14.96288697      32.25362777  T
Hf      11.47917999       5.37212308      32.25362777  T
Hf      17.58239337       2.97443211      32.25362777  T
Hf       3.60935169       7.90875224      29.38944622  T
Hf       8.84067745      12.70413418      29.38944622  T
Hf      14.94389083      10.30644321      29.38944622  T
Hf       4.48123932       0.71567933      29.38944622  T
Hf      14.07200320      17.49951612      29.38944622  T
Hf      20.17521658      15.10182515      29.38944622  T
Hf       9.71256507       5.51106127      29.38944622  T
Hf      15.81577846       3.11337030      29.38944622  T
Hf       6.54860696       6.06820916      29.55526475  T
Hf      11.77993272      10.86359110      29.55526475  T
Hf      17.88314610       8.46590013      29.55526475  T
Hf      10.90804509      18.05666401      29.55526475  T
Hf      17.01125847      15.65897304      29.55526475  T
Hf       5.67671934      13.26128207      29.55526475  T
Hf      12.65182034       3.67051819      29.55526475  T
Hf       1.31728121       1.27282721      29.55526475  T
Hf       0.99774511       5.17193031      29.80576670  T
Hf       6.22907086       9.96731225      29.80576670  T
Hf      12.33228424       7.56962128      29.80576670  T
Hf       5.35718324      17.16038517      29.80576670  T
Hf      11.46039662      14.76269419      29.80576670  T
Hf      17.56361000      12.36500322      29.80576670  T
Hf       7.10095849       2.77423934      29.80576670  T
Hf      13.20417187       0.37654837      29.80576670  T
Hf       9.16023006       8.80502624      29.13894511  T
Hf      14.39155581      13.60040818      29.13894511  T
Hf       3.05701668      11.20271721      29.13894511  T
Hf      10.03211768       1.61195332      29.13894511  T
Hf      19.62288157      18.39579012      29.13894511  T
Hf       8.28834243      15.99809915      29.13894511  T
Hf      15.26344344       6.40733527      29.13894511  T
Hf       3.92890430       4.00964430      29.13894511  T
Hf       7.39361514       8.94396442      26.27476355  T
Hf      12.62494090      13.73934636      26.27476355  T
Hf      18.72815428      11.34165539      26.27476355  T
Hf       8.26550277       1.75089151      26.27476355  T
Hf      17.85626665      18.53472831      26.27476355  T
Hf       6.52172752      16.13703733      26.27476355  T
Hf      13.49682852       6.54627345      26.27476355  T
Hf       2.16228939       4.14858248      26.27476355  T
Hf      10.33287041       7.10342134      26.44058209  T
Hf      15.56419616      11.89880328      26.44058209  T
Hf       4.22965703       9.50111231      26.44058209  T
Hf      14.69230854      19.09187619      26.44058209  T
Hf       3.35776940      16.69418522      26.44058209  T
Hf       9.46098278      14.29649425      26.44058209  T
Hf      16.43608379       4.70573037      26.44058209  T
Hf       5.10154465       2.30803940      26.44058209  T
Hf       4.78200856       6.20714249      26.69108403  T
Hf      10.01333431      11.00252444      26.69108403  T
Hf      16.11654769       8.60483346      26.69108403  T
Hf       9.14144669      18.19559735      26.69108403  T
Hf      15.24466007      15.79790638      26.69108403  T
Hf       3.91012093      13.40021541      26.69108403  T
Hf      10.88522194       3.80945152      26.69108403  T
Hf      16.98843532       1.41176055      26.69108403  T
Hf      12.94449351       9.84023842      26.02426245  T
Hf      18.17581926      14.63562036      26.02426245  T
Hf       6.84128013      12.23792939      26.02426245  T
Hf      13.81638113       2.64716551      26.02426245  T
Hf       2.48184200       0.24947454      26.02426245  T
Hf      12.07260588      17.03331133      26.02426245  T
Hf       1.60995437       7.44254745      26.02426245  T
Hf       7.71316775       5.04485648      26.02426245  T
Hf      11.17787859       9.97917660      23.16008089  T
Hf      16.40920434      14.77455855      23.16008089  T
Hf       5.07466521      12.37686758      23.16008089  T
Hf      12.04976622       2.78610369      23.16008089  T
Hf       0.71522708       0.38841272      23.16008089  T
Hf      10.30599096      17.17224952      23.16008089  T
Hf      17.28109197       7.58148563      23.16008089  T
Hf       5.94655284       5.18379466      23.16008089  T
Hf      14.11713386       8.13863352      23.32589943  T
Hf      19.34845961      12.93401546      23.32589943  T
Hf       8.01392048      10.53632449      23.32589943  T
Hf      14.98902148       0.94556061      23.32589943  T
Hf       7.14203285      17.72939741      23.32589943  T
Hf      13.24524623      15.33170644      23.32589943  T
Hf       2.78259472       5.74094255      23.32589943  T
Hf       8.88580810       3.34325158      23.32589943  T
Hf       8.56627201       7.24235468      23.57640137  T
Hf      13.79759776      12.03773662      23.57640137  T
Hf       2.46305862       9.64004565      23.57640137  T
Hf       9.43815963       0.04928176      23.57640137  T
Hf      19.02892351      16.83311856      23.57640137  T
Hf       7.69438438      14.43542759      23.57640137  T
Hf      14.66948539       4.84466371      23.57640137  T
Hf       3.33494625       2.44697273      23.57640137  T
Hf      16.72875695      10.87545060      22.90957979  T
Hf       4.52233019      15.67083255      22.90957979  T
Hf      10.62554357      13.27314157      22.90957979  T
Hf      17.60064458       3.68237769      22.90957979  T
Hf       6.26610544       1.28468672      22.90957979  T
Hf      15.85686933      18.06852352      22.90957979  T
Hf       5.39421782       8.47775963      22.90957979  T
Hf      11.49743120       6.08006866      22.90957979  T
Ti      16.56590190      14.82207749      10.01981452  F
Ti      14.82212665      18.30962799      10.01981452  F
Ti      14.82212665       9.59075174      10.01981452  F
Ti      13.07835140      13.07830224      10.01981452  F
Ti      11.33457615      16.56585274      10.01981452  F
Ti      13.07835140       4.35942598      10.01981452  F
Ti      11.33457615       7.84697648      10.01981452  F
Ti       9.59080090      11.33452699      10.01981452  F
Ti       7.84702565      14.82207749      10.01981452  F
Ti       6.10325039      18.30962799      10.01981452  F
Ti       9.59080090       2.61565073      10.01981452  F
Ti       7.84702565       6.10320123      10.01981452  F
Ti       6.10325039       9.59075174      10.01981452  F
Ti       4.35947514      13.07830224      10.01981452  F
Ti      20.05345241      16.56585274      10.01981452  F
Ti       6.10325039       0.87187548      10.01981452  F
Ti       4.35947514       4.35942598      10.01981452  F
Ti       2.61569989       7.84697648      10.01981452  F
Ti      18.30967716      11.33452699      10.01981452  F
Ti       0.87192464       2.61565073      10.01981452  F
Ti      16.56590190       6.10320123      10.01981452  F
Ti      14.82212665       0.87187548      10.01981452  F
Ti      16.56590190      14.82207749      13.91901452  F
Ti      14.82212665      18.30962799      13.91901452  F
Ti      14.82212665       9.59075174      13.91901452  F
Ti      13.07835140      13.07830224      13.91901452  F
Ti      11.33457615      16.56585274      13.91901452  F
Ti      13.07835140       4.35942598      13.91901452  F
Ti      11.33457615       7.84697648      13.91901452  F
Ti       9.59080090      11.33452699      13.91901452  F
Ti       7.84702565      14.82207749      13.91901452  F
Ti       6.10325039      18.30962799      13.91901452  F
Ti       9.59080090       2.61565073      13.91901452  F
Ti       7.84702565       6.10320123      13.91901452  F
Ti       6.10325039       9.59075174      13.91901452  F
Ti       4.35947514      13.07830224      13.91901452  F
Ti      20.05345241      16.56585274      13.91901452  F
Ti       6.10325039       0.87187548      13.91901452  F
Ti       4.35947514       4.35942598      13.91901452  F
Ti       2.61569989       7.84697648      13.91901452  F
Ti      18.30967716      11.33452699      13.91901452  F
Ti       0.87192464       2.61565073      13.91901452  F
Ti      16.56590190       6.10320123      13.91901452  F
Ti      14.82212665       0.87187548      13.91901452  F
Ti      16.56590190      14.82207749      17.81821452  T
Ti      14.82212665      18.30962799      17.81821452  T
Ti      14.82212665       9.59075174      17.81821452  T
Ti      13.07835140      13.07830224      17.81821452  T
Ti      11.33457615      16.56585274      17.81821452  T
Ti      13.07835140       4.35942598      17.81821452  T
Ti      11.33457615       7.84697648      17.81821452  T
Ti       9.59080090      11.33452699      17.81821452  T
Ti       7.84702565      14.82207749      17.81821452  T
Ti       6.10325039      18.30962799      17.81821452  T
Ti       9.59080090       2.61565073      17.81821452  T
Ti       7.84702565       6.10320123      17.81821452  T
Ti       6.10325039       9.59075174      17.81821452  T
Ti       4.35947514      13.07830224      17.81821452  T
Ti      20.05345241      16.56585274      17.81821452  T
Ti       6.10325039       0.87187548      17.81821452  T
Ti       4.35947514       4.35942598      17.81821452  T
Ti       2.61569989       7.84697648      17.81821452  T
Ti      18.30967716      11.33452699      17.81821452  T
Ti       0.87192464       2.61565073      17.81821452  T
Ti      16.56590190       6.10320123      17.81821452  T
Ti      14.82212665       0.87187548      17.81821452  T
O       15.69400397      16.56585742      10.01982526  F
O       10.46267821       0.87188016      10.01982526  F
O       13.95022871      11.33453167      10.01982526  F
O       12.20645346      14.82208217      10.01982526  F
O       10.46267821      18.30963267      10.01982526  F
O       12.20645346       6.10320591      10.01982526  F
O       10.46267821       9.59075642      10.01982526  F
O        8.71890296      13.07830692      10.01982526  F
O        6.97512771      16.56585742      10.01982526  F
O        1.74380195       0.87188016      10.01982526  F
O        8.71890296       4.35943066      10.01982526  F
O        6.97512771       7.84698116      10.01982526  F
O        5.23135246      11.33453167      10.01982526  F
O        3.48757720      14.82208217      10.01982526  F
O       19.18155447      18.30963267      10.01982526  F
O        5.23135246       2.61565541      10.01982526  F
O        3.48757720       6.10320591      10.01982526  F
O        1.74380195       9.59075642      10.01982526  F
O       17.43777922      13.07830692      10.01982526  F
O       17.43777922       4.35943066      10.01982526  F
O       15.69400397       7.84698116      10.01982526  F
O       13.95022871       2.61565541      10.01982526  F
O       14.82211460      13.95018431      10.01982991  F
O       13.07833935      17.43773482      10.01982991  F
O       13.07833935       8.71885856      10.01982991  F
O       11.33456410      12.20640906      10.01982991  F
O        9.59078884      15.69395957      10.01982991  F
O       11.33456410       3.48753280      10.01982991  F
O        9.59078884       6.97508331      10.01982991  F
O        7.84701359      10.46263381      10.01982991  F
O        6.10323834      13.95018431      10.01982991  F
O        4.35946309      17.43773482      10.01982991  F
O        7.84701359       1.74375755      10.01982991  F
O        6.10323834       5.23130806      10.01982991  F
O        4.35946309       8.71885856      10.01982991  F
O        2.61568784      12.20640906      10.01982991  F
O       18.30966510      15.69395957      10.01982991  F
O        7.84701359      19.18151007      10.01982991  F
O        2.61568784       3.48753280      10.01982991  F
O       18.30966510       6.97508331      10.01982991  F
O       16.56588985      10.46263381      10.01982991  F
O       16.56588985       1.74375755      10.01982991  F
O       14.82211460       5.23130806      10.01982991  F
O       16.56588985      19.18151007      10.01982991  F
O       16.56589793      14.82207515      11.96943853  F
O       14.82212267      18.30962565      11.96943853  F
O       14.82212267       9.59074939      11.96943853  F
O       13.07834742      13.07829990      11.96943853  F
O       11.33457217      16.56585040      11.96943853  F
O       13.07834742       4.35942364      11.96943853  F
O       11.33457217       7.84697414      11.96943853  F
O        9.59079692      11.33452464      11.96943853  F
O        7.84702167      14.82207515      11.96943853  F
O        6.10324642      18.30962565      11.96943853  F
O        9.59079692       2.61564839      11.96943853  F
O        7.84702167       6.10319889      11.96943853  F
O        6.10324642       9.59074939      11.96943853  F
O        4.35947117      13.07829990      11.96943853  F
O       20.05344843      16.56585040      11.96943853  F
O        6.10324642       0.87187313      11.96943853  F
O        4.35947117       4.35942364      11.96943853  F
O        2.61569591       7.84697414      11.96943853  F
O       18.30967318      11.33452464      11.96943853  F
O        0.87192066       2.61564839      11.96943853  F
O       16.56589793       6.10319889      11.96943853  F
O       14.82212267       0.87187313      11.96943853  F
O       15.69400397      16.56585742      13.91902526  F
O       10.46267821       0.87188016      13.91902526  F
O       13.95022871      11.33453167      13.91902526  F
O       12.20645346      14.82208217      13.91902526  F
O       10.46267821      18.30963267      13.91902526  F
O       12.20645346       6.10320591      13.91902526  F
O       10.46267821       9.59075642      13.91902526  F
O        8.71890296      13.07830692      13.91902526  F
O        6.97512771      16.56585742      13.91902526  F
O        1.74380195       0.87188016      13.91902526  F
O        8.71890296       4.35943066      13.91902526  F
O        6.97512771       7.84698116      13.91902526  F
O        5.23135246      11.33453167      13.91902526  F
O        3.48757720      14.82208217      13.91902526  F
O       19.18155447      18.30963267      13.91902526  F
O        5.23135246       2.61565541      13.91902526  F
O        3.48757720       6.10320591      13.91902526  F
O        1.74380195       9.59075642      13.91902526  F
O       17.43777922      13.07830692      13.91902526  F
O       17.43777922       4.35943066      13.91902526  F
O       15.69400397       7.84698116      13.91902526  F
O       13.95022871       2.61565541      13.91902526  F
O       14.82211460      13.95018431      13.91902991  F
O       13.07833935      17.43773482      13.91902991  F
O       13.07833935       8.71885856      13.91902991  F
O       11.33456410      12.20640906      13.91902991  F
O        9.59078884      15.69395957      13.91902991  F
O       11.33456410       3.48753280      13.91902991  F
O        9.59078884       6.97508331      13.91902991  F
O        7.84701359      10.46263381      13.91902991  F
O        6.10323834      13.95018431      13.91902991  F
O        4.35946309      17.43773482      13.91902991  F
O        7.84701359       1.74375755      13.91902991  F
O        6.10323834       5.23130806      13.91902991  F
O        4.35946309       8.71885856      13.91902991  F
O        2.61568784      12.20640906      13.91902991  F
O       18.30966510      15.69395957      13.91902991  F
O        7.84701359      19.18151007      13.91902991  F
O        2.61568784       3.48753280      13.91902991  F
O       18.30966510       6.97508331      13.91902991  F
O       16.56588985      10.46263381      13.91902991  F
O       16.56588985       1.74375755      13.91902991  F
O       14.82211460       5.23130806      13.91902991  F
O       16.56588985      19.18151007      13.91902991  F
O       16.56589793      14.82207515      15.86863853  T
O       14.82212267      18.30962565      15.86863853  T
O       14.82212267       9.59074939      15.86863853  T
O       13.07834742      13.07829990      15.86863853  T
O       11.33457217      16.56585040      15.86863853  T
O       13.07834742       4.35942364      15.86863853  T
O       11.33457217       7.84697414      15.86863853  T
O        9.59079692      11.33452464      15.86863853  T
O        7.84702167      14.82207515      15.86863853  T
O        6.10324642      18.30962565      15.86863853  T
O        9.59079692       2.61564839      15.86863853  T
O        7.84702167       6.10319889      15.86863853  T
O        6.10324642       9.59074939      15.86863853  T
O        4.35947117      13.07829990      15.86863853  T
O       20.05344843      16.56585040      15.86863853  T
O        6.10324642       0.87187313      15.86863853  T
O        4.35947117       4.35942364      15.86863853  T
O        2.61569591       7.84697414      15.86863853  T
O       18.30967318      11.33452464      15.86863853  T
O        0.87192066       2.61564839      15.86863853  T
O       16.56589793       6.10319889      15.86863853  T
O       14.82212267       0.87187313      15.86863853  T
O       15.69400397      16.56585742      17.81822526  T
O       10.46267821       0.87188016      17.81822526  T
O       13.95022871      11.33453167      17.81822526  T
O       12.20645346      14.82208217      17.81822526  T
O       10.46267821      18.30963267      17.81822526  T
O       12.20645346       6.10320591      17.81822526  T
O       10.46267821       9.59075642      17.81822526  T
O        8.71890296      13.07830692      17.81822526  T
O        6.97512771      16.56585742      17.81822526  T
O        1.74380195       0.87188016      17.81822526  T
O        8.71890296       4.35943066      17.81822526  T
O        6.97512771       7.84698116      17.81822526  T
O        5.23135246      11.33453167      17.81822526  T
O        3.48757720      14.82208217      17.81822526  T
O       19.18155447      18.30963267      17.81822526  T
O        5.23135246       2.61565541      17.81822526  T
O        3.48757720       6.10320591      17.81822526  T
O        1.74380195       9.59075642      17.81822526  T
O       17.43777922      13.07830692      17.81822526  T
O       17.43777922       4.35943066      17.81822526  T
O       15.69400397       7.84698116      17.81822526  T
O       13.95022871       2.61565541      17.81822526  T
O       14.82211460      13.95018431      17.81822991  T
O       13.07833935      17.43773482      17.81822991  T
O       13.07833935       8.71885856      17.81822991  T
O       11.33456410      12.20640906      17.81822991  T
O        9.59078884      15.69395957      17.81822991  T
O       11.33456410       3.48753280      17.81822991  T
O        9.59078884       6.97508331      17.81822991  T
O        7.84701359      10.46263381      17.81822991  T
O        6.10323834      13.95018431      17.81822991  T
O        4.35946309      17.43773482      17.81822991  T
O        7.84701359       1.74375755      17.81822991  T
O        6.10323834       5.23130806      17.81822991  T
O        4.35946309       8.71885856      17.81822991  T
O        2.61568784      12.20640906      17.81822991  T
O       18.30966510      15.69395957      17.81822991  T
O        7.84701359      19.18151007      17.81822991  T
O        2.61568784       3.48753280      17.81822991  T
O       18.30966510       6.97508331      17.81822991  T
O       16.56588985      10.46263381      17.81822991  T
O       16.56588985       1.74375755      17.81822991  T
O       14.82211460       5.23130806      17.81822991  T
O       16.56588985      19.18151007      17.81822991  T
O       16.56589793      14.82207515      19.76783853  T
O       14.82212267      18.30962565      19.76783853  T
O       14.82212267       9.59074939      19.76783853  T
O       13.07834742      13.07829990      19.76783853  T
O       11.33457217      16.56585040      19.76783853  T
O       13.07834742       4.35942364      19.76783853  T
O       11.33457217       7.84697414      19.76783853  T
O        9.59079692      11.33452464      19.76783853  T
O        7.84702167      14.82207515      19.76783853  T
O        6.10324642      18.30962565      19.76783853  T
O        9.59079692       2.61564839      19.76783853  T
O        7.84702167       6.10319889      19.76783853  T
O        6.10324642       9.59074939      19.76783853  T
O        4.35947117      13.07829990      19.76783853  T
O       20.05344843      16.56585040      19.76783853  T
O        6.10324642       0.87187313      19.76783853  T
O        4.35947117       4.35942364      19.76783853  T
O        2.61569591       7.84697414      19.76783853  T
O       18.30967318      11.33452464      19.76783853  T
O        0.87192066       2.61564839      19.76783853  T
O       16.56589793       6.10319889      19.76783853  T
O       14.82212267       0.87187313      19.76783853  T
O       18.14191936       4.94798413      35.48585210  T
O        5.93549260       9.74336607      35.48585210  T
O       12.03870598       7.34567510      35.48585210  T
O        5.06360497      16.93643898      35.48585210  T
O       11.16681835      14.53874801      35.48585210  T
O       17.27003173      12.14105704      35.48585210  T
O        6.80738022       2.55029316      35.48585210  T
O       12.91059360       0.15260219      35.48585210  T
O       11.75448981       4.88813085      35.91760337  T
O       16.98581556       9.68351279      35.91760337  T
O        5.65127643       7.28582182      35.91760337  T
O       16.11392794      16.87658570      35.91760337  T
O        4.77938880      14.47889473      35.91760337  T
O       10.88260218      12.08120376      35.91760337  T
O       17.85770319       2.49043988      35.91760337  T
O        6.52316406       0.09274891      35.91760337  T
O       12.65879999       2.50904464      36.92687309  T
O       17.89012574       7.30442658      36.92687309  T
O        6.55558661       4.90673561      36.92687309  T
O       17.01823812      14.49749950      36.92687309  T
O        5.68369898      12.09980852      36.92687309  T
O       11.78691236       9.70211755      36.92687309  T
O        1.32426085       0.11135367      36.92687309  T
O       10.91502474      16.89519047      36.92687309  T
O       17.23761146       7.32705661      34.47656919  T
O        5.03118470      12.12243855      34.47656919  T
O       11.13439808       9.72474758      34.47656919  T
O        0.67174657       0.13398370      34.47656919  T
O       10.26251045      16.91782049      34.47656919  T
O       16.36572383      14.52012952      34.47656919  T
O        5.90307232       4.92936564      34.47656919  T
O       12.00628571       2.53167467      34.47656919  T
O       15.49577245       2.24907185      36.55034685  T
O        3.28934568       7.04445379      36.55034685  T
O        9.39255906       4.64676282      36.55034685  T
O       19.85521057      14.23752670      36.55034685  T
O        8.52067144      11.83983573      36.55034685  T
O       14.62388482       9.44214476      36.55034685  T
O        7.64878381      19.03290864      36.55034685  T
O       13.75199719      16.63521767      36.55034685  T
O       14.40064179       7.58703999      34.85310419  T
O       19.63196754      12.38242193      34.85310419  T
O        8.29742841       9.98473096      34.85310419  T
O       15.27252941       0.39396708      34.85310419  T
O        7.42554078      17.17780387      34.85310419  T
O       13.52875416      14.78011290      34.85310419  T
O        3.06610265       5.18934902      34.85310419  T
O        9.16931603       2.79165805      34.85310419  T
O       15.53746156       5.81119324      36.36106070  T
O        3.33103480      10.60657518      36.36106070  T
O        9.43424818       8.20888421      36.36106070  T
O       19.89689969      17.79964809      36.36106070  T
O        8.56236056      15.40195712      36.36106070  T
O       14.66557394      13.00426615      36.36106070  T
O        4.20292243       3.41350227      36.36106070  T
O       10.30613581       1.01581130      36.36106070  T
O       14.35895505       4.02491916      35.04239660  T
O        2.15252829       8.82030110      35.04239660  T
O        8.25574167       6.42261013      35.04239660  T
O       18.71839318      16.01337401      35.04239660  T
O        7.38385404      13.61568304      35.04239660  T
O       13.48706742      11.21799207      35.04239660  T
O        3.02441591       1.62722819      35.04239660  T
O       12.61517980      18.41106498      35.04239660  T
O        4.48843029       5.98319631      32.37116943  T
O        9.71975604      10.77857825      32.37116943  T
O       15.82296942       8.38088728      32.37116943  T
O        8.84786842      17.97165117      32.37116943  T
O       14.95108180      15.57396020      32.37116943  T
O        3.61654266      13.17626922      32.37116943  T
O       10.59164367       3.58550534      32.37116943  T
O       16.69485705       1.18781437      32.37116943  T
O       15.53875326       5.92334303      32.80292070  T
O        3.33232650      10.71872497      32.80292070  T
O        9.43553988       8.32103400      32.80292070  T
O       19.89819139      17.91179789      32.80292070  T
O        8.56365225      15.51410691      32.80292070  T
O       14.66686563      13.11641594      32.80292070  T
O        4.20421412       3.52565206      32.80292070  T
O       10.30742750       1.12796109      32.80292070  T
O       16.44306344       3.54425682      33.81219043  T
O        4.23663668       8.33963877      33.81219043  T
O       10.33985006       5.94194779      33.81219043  T
O        3.36474905      15.53271168      33.81219043  T
O        9.46796243      13.13502071      33.81219043  T
O       15.57117581      10.73732974      33.81219043  T
O        5.10852430       1.14656585      33.81219043  T
O       14.69928819      17.93040265      33.81219043  T
O        3.58412239       8.36226879      31.36188652  T
O        8.81544815      13.15765073      31.36188652  T
O       14.91866153      10.75995976      31.36188652  T
O        4.45601002       1.16919588      31.36188652  T
O       14.04677390      17.95303268      31.36188652  T
O       20.14998728      15.55534170      31.36188652  T
O        9.68733577       5.96457782      31.36188652  T
O       15.79054915       3.56688685      31.36188652  T
O        1.84228338       3.28428403      33.43566419  T
O        7.07360913       8.07966597      33.43566419  T
O       13.17682251       5.68197500      33.43566419  T
O        6.20172151      15.27273888      33.43566419  T
O       12.30493489      12.87504791      33.43566419  T
O       18.40814827      10.47735694      33.43566419  T
O        7.94549676       0.88659306      33.43566419  T
O       17.53626064      17.67042986      33.43566419  T
O       18.18490523       8.62225217      31.73842152  T
O        5.97847847      13.41763412      31.73842152  T
O       12.08169185      11.01994314      31.73842152  T
O        1.61904034       1.42917926      31.73842152  T
O       11.20980423      18.21301606      31.73842152  T
O       17.31301761      15.81532509      31.73842152  T
O        6.85036610       6.22456120      31.73842152  T
O       12.95357948       3.82687023      31.73842152  T
O        1.88397249       6.84640542      33.24637804  T
O        7.11529825      11.64178736      33.24637804  T
O       13.21851163       9.24409639      33.24637804  T
O        6.24341062      18.83486028      33.24637804  T
O       12.34662400      16.43716930      33.24637804  T
O       18.44983738      14.03947833      33.24637804  T
O        7.98718587       4.44871445      33.24637804  T
O       14.09039926       2.05102348      33.24637804  T
O       18.14321850       5.06013134      31.92771394  T
O        5.93679173       9.85551328      31.92771394  T
O       12.04000511       7.45782231      31.92771394  T
O        5.06490411      17.04858619      31.92771394  T
O       11.16811749      14.65089522      31.92771394  T
O       17.27133087      12.25320425      31.92771394  T
O        6.80867936       2.66244037      31.92771394  T
O       12.91189274       0.26474940      31.92771394  T
O        8.27269374       7.01840849      29.25648677  T
O       13.50401949      11.81379044      29.25648677  T
O        2.16948036       9.41609947      29.25648677  T
O       12.63213187      19.00686335      29.25648677  T
O       18.73534525      16.60917238      29.25648677  T
O        7.40080611      14.21148141      29.25648677  T
O       14.37590712       4.62071752      29.25648677  T
O        3.04136798       2.22302655      29.25648677  T
O        1.88526419       6.95855521      29.68823804  T
O        7.11658994      11.75393716      29.68823804  T
O       13.21980333       9.35624619      29.68823804  T
O        6.24470232      18.94701007      29.68823804  T
O       12.34791570      16.54931910      29.68823804  T
O       18.45112908      14.15162813      29.68823804  T
O        7.98847757       4.56086424      29.68823804  T
O       14.09169095       2.16317327      29.68823804  T
O        2.78957437       4.57946901      30.69750776  T
O        8.02090012       9.37485095      30.69750776  T
O       14.12411351       6.97715998      30.69750776  T
O        7.14901250      16.56792386      30.69750776  T
O       13.25222588      14.17023289      30.69750776  T
O       19.35543926      11.77254192      30.69750776  T
O        8.89278775       2.18177804      30.69750776  T
O       18.48355163      18.96561483      30.69750776  T
O        7.36838584       9.39748098      28.24720386  T
O       12.59971159      14.19286292      28.24720386  T
O       18.70292497      11.79517195      28.24720386  T
O        8.24027347       2.20440806      28.24720386  T
O       17.83103735      18.98824486      28.24720386  T
O        6.49649821      16.59055389      28.24720386  T
O       13.47159922       6.99979000      28.24720386  T
O        2.13706008       4.60209903      28.24720386  T
O        5.62654682       4.31949621      30.32098153  T
O       10.85787258       9.11487815      30.32098153  T
O       16.96108596       6.71718718      30.32098153  T
O        9.98598495      16.30795107      30.32098153  T
O       16.08919833      13.91026010      30.32098153  T
O        4.75465920      11.51256913      30.32098153  T
O       11.72976021       1.92180524      30.32098153  T
O        3.88277157      18.70564204      30.32098153  T
O        4.53141617       9.65746436      28.62373886  T
O        9.76274192      14.45284630      28.62373886  T
O       15.86595530      12.05515533      28.62373886  T
O        5.40330379       2.46439144      28.62373886  T
O       11.50651717       0.06670047      28.62373886  T
O        3.65952854      16.85053727      28.62373886  T
O       10.63462955       7.25977339      28.62373886  T
O       16.73784293       4.86208241      28.62373886  T
O        5.66823594       7.88161760      30.13169538  T
O       10.89956170      12.67699955      30.13169538  T
O       17.00277508      10.27930857      30.13169538  T
O        6.54012357       0.68854469      30.13169538  T
O       16.13088745      17.47238149      30.13169538  T
O        4.79634832      15.07469052      30.13169538  T
O       11.77144932       5.48392663      30.13169538  T
O       17.87466270       3.08623566      30.13169538  T
O        4.48972943       6.09534352      28.81303127  T
O        9.72105518      10.89072546      28.81303127  T
O       15.82426856       8.49303449      28.81303127  T
O        8.84916756      18.08379838      28.81303127  T
O       14.95238094      15.68610741      28.81303127  T
O        3.61784180      13.28841644      28.81303127  T
O       10.59294281       3.69765255      28.81303127  T
O       16.69615619       1.29996158      28.81303127  T
O       12.05695718       8.05362068      26.14180411  T
O       17.28828294      12.84900262      26.14180411  T
O        5.95374380      10.45131165      26.14180411  T
O       12.92884481       0.86054777      26.14180411  T
O        5.08185618      17.64438456      26.14180411  T
O       11.18506956      15.24669359      26.14180411  T
O       18.16017056       5.65592971      26.14180411  T
O        6.82563143       3.25823874      26.14180411  T
O        5.66952764       7.99376740      26.57355538  T
O       10.90085339      12.78914934      26.57355538  T
O       17.00406677      10.39145837      26.57355538  T
O        6.54141526       0.80069448      26.57355538  T
O       16.13217915      17.58453128      26.57355538  T
O        4.79764001      15.18684031      26.57355538  T
O       11.77274102       5.59607643      26.57355538  T
O       17.87595440       3.19838546      26.57355538  T
O        6.57383782       5.61468119      27.58282510  T
O       11.80516357      10.41006313      27.58282510  T
O       17.90837695       8.01237216      27.58282510  T
O       10.93327595      17.60313604      27.58282510  T
O       17.03648933      15.20544507      27.58282510  T
O        5.70195019      12.80775410      27.58282510  T
O       12.67705120       3.21699022      27.58282510  T
O        1.34251206       0.81929925      27.58282510  T
O       11.15264929      10.43269316      25.13252120  T
O       16.38397504      15.22807510      25.13252120  T
O        5.04943591      12.83038413      25.13252120  T
O       12.02453691       3.23962025      25.13252120  T
O        0.68999778       0.84192927      25.13252120  T
O       10.28076166      17.62576607      25.13252120  T
O       17.25586267       8.03500219      25.13252120  T
O        5.92132353       5.63731122      25.13252120  T
O        9.41081027       5.35470840      27.20629887  T
O       14.64213603      10.15009034      27.20629887  T
O        3.30759689       7.75239937      27.20629887  T
O       13.77024840      17.34316325      27.20629887  T
O       19.87346178      14.94547228      27.20629887  T
O        8.53892265      12.54778131      27.20629887  T
O       15.51402365       2.95701743      27.20629887  T
O        4.17948452       0.55932645      27.20629887  T
O        8.31567961      10.69267654      25.50905620  T
O       13.54700537      15.48805848      25.50905620  T
O       19.65021875      13.09036751      25.50905620  T
O        9.18756724       3.49960363      25.50905620  T
O       15.29078062       1.10191266      25.50905620  T
O        7.44379199      17.88574945      25.50905620  T
O       14.41889299       8.29498557      25.50905620  T
O        3.08435386       5.89729460      25.50905620  T
O        9.45249939       8.91682979      27.01701272  T
O       14.68382514      13.71221173      27.01701272  T
O        3.34928601      11.31452076      27.01701272  T
O       10.32438702       1.72375687      27.01701272  T
O       19.91515090      18.50759367      27.01701272  T
O        8.58061176      16.10990270      27.01701272  T
O       15.55571277       6.51913882      27.01701272  T
O        4.22117364       4.12144785      27.01701272  T
O        8.27399287       7.13055571      25.69834861  T
O       13.50531863      11.92593765      25.69834861  T
O        2.17077949       9.52824668      25.69834861  T
O       12.63343100      19.11901056      25.69834861  T
O       18.73664438      16.72131959      25.69834861  T
O        7.40210525      14.32362862      25.69834861  T
O       14.37720626       4.73286473      25.69834861  T
O        3.04266712       2.33517376      25.69834861  T
O       15.84122063       9.08883286      23.02712144  T
O        3.63479387      13.88421480      23.02712144  T
O        9.73800725      11.48652383      23.02712144  T
O       16.71310826       1.89575995      23.02712144  T
O        8.86611963      18.67959674      23.02712144  T
O       14.96933301      16.28190577      23.02712144  T
O        4.50668150       6.69114189      23.02712144  T
O       10.60989488       4.29345092      23.02712144  T
O        9.45379109       9.02897958      23.45887271  T
O       14.68511684      13.82436152      23.45887271  T
O        3.35057771      11.42667055      23.45887271  T
O       10.32567871       1.83590667      23.45887271  T
O       19.91644260      18.61974346      23.45887271  T
O        8.58190346      16.22205249      23.45887271  T
O       15.55700447       6.63128861      23.45887271  T
O        4.22246533       4.23359764      23.45887271  T
O       10.35810127       6.64989337      24.46814244  T
O       15.58942702      11.44527532      24.46814244  T
O        4.25488789       9.04758434      24.46814244  T
O       14.71753939      18.63834823      24.46814244  T
O        3.38300026      16.24065726      24.46814244  T
O        9.48621364      13.84296629      24.46814244  T
O       16.46131465       4.25220240      24.46814244  T
O        5.12677551       1.85451143      24.46814244  T
O       14.93691274      11.46790534      22.01783853  T
O       20.16823849      16.26328728      22.01783853  T
O        8.83369935      13.86559631      22.01783853  T
O       15.80880036       4.27483243      22.01783853  T
O        4.47426123       1.87714146      22.01783853  T
O       14.06502511      18.66097825      22.01783853  T
O        3.60237360       9.07021437      22.01783853  T
O        9.70558698       6.67252340      22.01783853  T
O       13.19507372       6.38992058      24.09161620  T
O       18.42639948      11.18530252      24.09161620  T
O        7.09186034       8.78761155      24.09161620  T
O       17.55451185      18.37837543      24.09161620  T
O        6.21997271      15.98068446      24.09161620  T
O       12.32318609      13.58299349      24.09161620  T
O        1.86053459       3.99222961      24.09161620  T
O        7.96374797       1.59453864      24.09161620  T
O       12.09994306      11.72788872      22.39437353  T
O       17.33126882      16.52327066      22.39437353  T
O        5.99672968      14.12557969      22.39437353  T
O       12.97183069       4.53481581      22.39437353  T
O        1.63729155       2.13712484      22.39437353  T
O       11.22805544      18.92096164      22.39437353  T
O       18.20315644       9.33019775      22.39437353  T
O        6.86861731       6.93250678      22.39437353  T
O       13.23676284       9.95204197      23.90233005  T
O       18.46808859      14.74742391      23.90233005  T
O        7.13354946      12.34973294      23.90233005  T
O       14.10865046       2.75896906      23.90233005  T
O        2.77411133       0.36127809      23.90233005  T
O       12.36487521      17.14511488      23.90233005  T
O        1.90222370       7.55435100      23.90233005  T
O        8.00543708       5.15666003      23.90233005  T
O       12.05825632       8.16576789      22.58366595  T
O       17.28958208      12.96114983      22.58366595  T
O        5.95504294      10.56345886      22.58366595  T
O       12.93014395       0.97269498      22.58366595  T
O        5.08315532      17.75653177      22.58366595  T
O       11.18636870      15.35884080      22.58366595  T
O       18.16146970       5.76807692      22.58366595  T
O        6.82693057       3.37038595      22.58366595  T
