Sr Hf Ti O 
 1.0000000000000000
    17.4377525157343598    0.0000000000000000    0.0000000000000011
     3.4875505031468674   19.1815277673077951    0.0000000000000012
     0.0000000000000000    0.0000000000000000   46.9070585703796752
 Sr  Hf  Ti  O  
  66 160  66 518
Selective dynamics
Direct
  0.6363650050954507  0.8181813583692902  0.2551733707491845   F   F   F
  0.5000013687318146  0.9999995401874719  0.2551733707491845   F   F   F
  0.5909104596409056  0.5454540856420174  0.2551733707491844   F   F   F
  0.4545468232772690  0.7272722674601992  0.2551733707491844   F   F   F
  0.3181831869136326  0.9090904492783810  0.2551733707491845   F   F   F
  0.5454559141863596  0.2727268129147445  0.2551733707491843   F   F   F
  0.4090922778227233  0.4545449947329264  0.2551733707491843   F   F   F
  0.2727286414590871  0.6363631765511082  0.2551733707491843   F   F   F
  0.1363650050954505  0.8181813583692898  0.2551733707491843   F   F   F
  0.0000013687318145  0.9999995401874721  0.2551733707491843   F   F   F
  0.3636377323681778  0.1818177220056536  0.2551733707491845   F   F   F
  0.2272740960045415  0.3636359038238354  0.2551733707491845   F   F   F
  0.0909104596409052  0.5454540856420173  0.2551733707491845   F   F   F
  0.9545468232772687  0.7272722674601991  0.2551733707491845   F   F   F
  0.8181831869136323  0.9090904492783810  0.2551733707491845   F   F   F
  0.1818195505499962  0.0909086310965627  0.2551733707491845   F   F   F
  0.0454559141863598  0.2727268129147446  0.2551733707491845   F   F   F
  0.9090922778227236  0.4545449947329264  0.2551733707491845   F   F   F
  0.7727286414590868  0.6363631765511082  0.2551733707491845   F   F   F
  0.8636377323681778  0.1818177220056536  0.2551733707491843   F   F   F
  0.7272740960045417  0.3636359038238355  0.2551733707491843   F   F   F
  0.6818195505499959  0.0909086310965627  0.2551733707491845   F   F   F
  0.6363650050954507  0.8181813583692902  0.3382994528110049   T   T   T
  0.5000013687318146  0.9999995401874719  0.3382994528110049   T   T   T
  0.5909104596409056  0.5454540856420174  0.3382994528110049   T   T   T
  0.4545468232772690  0.7272722674601992  0.3382994528110049   T   T   T
  0.3181831869136326  0.9090904492783810  0.3382994528110049   T   T   T
  0.5454559141863596  0.2727268129147445  0.3382994528110047   T   T   T
  0.4090922778227233  0.4545449947329264  0.3382994528110048   T   T   T
  0.2727286414590871  0.6363631765511082  0.3382994528110048   T   T   T
  0.1363650050954505  0.8181813583692898  0.3382994528110049   T   T   T
  0.0000013687318145  0.9999995401874721  0.3382994528110049   T   T   T
  0.3636377323681778  0.1818177220056536  0.3382994528110049   T   T   T
  0.2272740960045415  0.3636359038238354  0.3382994528110049   T   T   T
  0.0909104596409052  0.5454540856420173  0.3382994528110049   T   T   T
  0.9545468232772687  0.7272722674601991  0.3382994528110049   T   T   T
  0.8181831869136323  0.9090904492783810  0.3382994528110049   T   T   T
  0.1818195505499962  0.0909086310965627  0.3382994528110049   T   T   T
  0.0454559141863598  0.2727268129147446  0.3382994528110049   T   T   T
  0.9090922778227236  0.4545449947329264  0.3382994528110049   T   T   T
  0.7727286414590868  0.6363631765511082  0.3382994528110049   T   T   T
  0.8636377323681778  0.1818177220056536  0.3382994528110049   T   T   T
  0.7272740960045417  0.3636359038238355  0.3382994528110049   T   T   T
  0.6818195505499959  0.0909086310965627  0.3382994528110049   T   T   T
  0.6363650050954507  0.8181813583692902  0.4214255348728253   T   T   T
  0.5000013687318146  0.9999995401874719  0.4214255348728253   T   T   T
  0.5909104596409056  0.5454540856420174  0.4214255348728254   T   T   T
  0.4545468232772690  0.7272722674601992  0.4214255348728254   T   T   T
  0.3181831869136326  0.9090904492783810  0.4214255348728253   T   T   T
  0.5454559141863596  0.2727268129147445  0.4214255348728254   T   T   T
  0.4090922778227233  0.4545449947329264  0.4214255348728254   T   T   T
  0.2727286414590871  0.6363631765511082  0.4214255348728254   T   T   T
  0.1363650050954505  0.8181813583692898  0.4214255348728254   T   T   T
  0.0000013687318145  0.9999995401874721  0.4214255348728254   T   T   T
  0.3636377323681778  0.1818177220056536  0.4214255348728254   T   T   T
  0.2272740960045415  0.3636359038238354  0.4214255348728254   T   T   T
  0.0909104596409052  0.5454540856420173  0.4214255348728254   T   T   T
  0.9545468232772687  0.7272722674601991  0.4214255348728251   T   T   T
  0.8181831869136323  0.9090904492783810  0.4214255348728251   T   T   T
  0.1818195505499962  0.0909086310965627  0.4214255348728254   T   T   T
  0.0454559141863598  0.2727268129147446  0.4214255348728254   T   T   T
  0.9090922778227236  0.4545449947329264  0.4214255348728253   T   T   T
  0.7727286414590868  0.6363631765511082  0.4214255348728253   T   T   T
  0.8636377323681778  0.1818177220056536  0.4214255348728254   T   T   T
  0.7272740960045417  0.3636359038238355  0.4214255348728254   T   T   T
  0.6818195505499959  0.0909086310965627  0.4214255348728254   T   T   T
  0.7120793315827160  0.3043724119821897  0.7593486487492174   T   T   T
  0.9620793315827159  0.5543724119821897  0.7593486487492171   T   T   T
  0.3370793315827160  0.4293724119821895  0.7593486487492174   T   T   T
  0.8370793315827161  0.9293724119821896  0.7593486487492171   T   T   T
  0.2120793315827160  0.8043724119821897  0.7593486487492175   T   T   T
  0.5870793315827162  0.6793724119821898  0.7593486487492175   T   T   T
  0.0870793315827163  0.1793724119821894  0.7593486487492174   T   T   T
  0.4620793315827159  0.0543724119821896  0.7593486487492170   T   T   T
  0.8998271196577464  0.2084184763009317  0.7628836932243250   T   T   T
  0.1498271196577467  0.4584184763009316  0.7628836932243250   T   T   T
  0.5248271196577466  0.3334184763009317  0.7628836932243250   T   T   T
  0.0248271196577464  0.8334184763009318  0.7628836932243250   T   T   T
  0.3998271196577468  0.7084184763009317  0.7628836932243250   T   T   T
  0.7748271196577466  0.5834184763009318  0.7628836932243255   T   T   T
  0.2748271196577469  0.0834184763009316  0.7628836932243254   T   T   T
  0.6498271196577465  0.9584184763009316  0.7628836932243250   T   T   T
  0.5908479632787997  0.1616923313840420  0.7682240822524484   T   T   T
  0.8408479632787996  0.4116923313840423  0.7682240822524484   T   T   T
  0.2158479632787999  0.2866923313840422  0.7682240822524484   T   T   T
  0.7158479632787996  0.7866923313840423  0.7682240822524484   T   T   T
  0.0908479632788002  0.6616923313840422  0.7682240822524484   T   T   T
  0.4658479632787999  0.5366923313840423  0.7682240822524484   T   T   T
  0.9658479632787996  0.0366923313840422  0.7682240822524484   T   T   T
  0.3408479632788001  0.9116923313840420  0.7682240822524484   T   T   T
  0.0210594854380757  0.3510983042099710  0.7540082775250929   T   T   T
  0.2710594854380755  0.6010983042099709  0.7540082775250930   T   T   T
  0.6460594854380756  0.4760983042099710  0.7540082775250930   T   T   T
  0.1460594854380756  0.9760983042099708  0.7540082775250930   T   T   T
  0.5210594854380757  0.8510983042099709  0.7540082775250930   T   T   T
  0.8960594854380758  0.7260983042099708  0.7540082775250930   T   T   T
  0.3960594854380760  0.2260983042099710  0.7540082775250929   T   T   T
  0.7710594854380758  0.1010983042099710  0.7540082775250930   T   T   T
  0.9183010363364035  0.3583416367337378  0.6929474980964485   T   T   T
  0.1683010363364037  0.6083416367337378  0.6929474980964485   T   T   T
  0.5433010363364037  0.4833416367337376  0.6929474980964485   T   T   T
  0.0433010363364040  0.9833416367337376  0.6929474980964484   T   T   T
  0.4183010363364040  0.8583416367337378  0.6929474980964485   T   T   T
  0.7933010363364039  0.7333416367337379  0.6929474980964485   T   T   T
  0.2933010363364039  0.2333416367337378  0.6929474980964485   T   T   T
  0.6683010363364035  0.1083416367337379  0.6929474980964485   T   T   T
  0.1060488244114343  0.2623877010524797  0.6964825425715564   T   T   T
  0.3560488244114344  0.5123877010524798  0.6964825425715564   T   T   T
  0.7310488244114345  0.3873877010524799  0.6964825425715564   T   T   T
  0.2310488244114343  0.8873877010524797  0.6964825425715562   T   T   T
  0.6060488244114340  0.7623877010524795  0.6964825425715562   T   T   T
  0.9810488244114343  0.6373877010524797  0.6964825425715562   T   T   T
  0.4810488244114345  0.1373877010524796  0.6964825425715564   T   T   T
  0.8560488244114338  0.0123877010524796  0.6964825425715562   T   T   T
  0.7970696680324877  0.2156615561355905  0.7018229315996796   T   T   T
  0.0470696680324872  0.4656615561355904  0.7018229315996796   T   T   T
  0.4220696680324876  0.3406615561355901  0.7018229315996796   T   T   T
  0.9220696680324876  0.8406615561355903  0.7018229315996796   T   T   T
  0.2970696680324877  0.7156615561355902  0.7018229315996796   T   T   T
  0.6720696680324879  0.5906615561355901  0.7018229315996796   T   T   T
  0.1720696680324878  0.0906615561355905  0.7018229315996795   T   T   T
  0.5470696680324872  0.9656615561355901  0.7018229315996796   T   T   T
  0.2272811901917637  0.4050675289615190  0.6876071268723241   T   T   T
  0.4772811901917636  0.6550675289615190  0.6876071268723241   T   T   T
  0.8522811901917636  0.5300675289615192  0.6876071268723241   T   T   T
  0.3522811901917633  0.0300675289615189  0.6876071268723241   T   T   T
  0.7272811901917633  0.9050675289615190  0.6876071268723241   T   T   T
  0.1022811901917635  0.7800675289615189  0.6876071268723241   T   T   T
  0.6022811901917634  0.2800675289615191  0.6876071268723241   T   T   T
  0.9772811901917634  0.1550675289615190  0.6876071268723241   T   T   T
  0.1245227410900920  0.4123108614852859  0.6265463474436793   T   T   T
  0.3745227410900913  0.6623108614852858  0.6265463474436792   T   T   T
  0.7495227410900915  0.5373108614852857  0.6265463474436792   T   T   T
  0.2495227410900915  0.0373108614852858  0.6265463474436791   T   T   T
  0.6245227410900920  0.9123108614852856  0.6265463474436790   T   T   T
  0.9995227410900916  0.7873108614852860  0.6265463474436790   T   T   T
  0.4995227410900918  0.2873108614852861  0.6265463474436793   T   T   T
  0.8745227410900914  0.1623108614852858  0.6265463474436792   T   T   T
  0.3122705291651223  0.3163569258040278  0.6300813919187873   T   T   T
  0.5622705291651224  0.5663569258040279  0.6300813919187871   T   T   T
  0.9372705291651222  0.4413569258040279  0.6300813919187873   T   T   T
  0.4372705291651222  0.9413569258040279  0.6300813919187871   T   T   T
  0.8122705291651222  0.8163569258040277  0.6300813919187870   T   T   T
  0.1872705291651222  0.6913569258040276  0.6300813919187871   T   T   T
  0.6872705291651225  0.1913569258040279  0.6300813919187871   T   T   T
  0.0622705291651223  0.0663569258040278  0.6300813919187871   T   T   T
  0.0032913727861757  0.2696307808871385  0.6354217809469103   T   T   T
  0.2532913727861758  0.5196307808871385  0.6354217809469105   T   T   T
  0.6282913727861756  0.3946307808871383  0.6354217809469104   T   T   T
  0.1282913727861756  0.8946307808871387  0.6354217809469104   T   T   T
  0.5032913727861756  0.7696307808871385  0.6354217809469102   T   T   T
  0.8782913727861758  0.6446307808871384  0.6354217809469104   T   T   T
  0.3782913727861759  0.1446307808871384  0.6354217809469105   T   T   T
  0.7532913727861756  0.0196307808871384  0.6354217809469100   T   T   T
  0.4335028949454511  0.4590367537130671  0.6212059762195549   T   T   T
  0.6835028949454516  0.7090367537130671  0.6212059762195549   T   T   T
  0.0585028949454514  0.5840367537130672  0.6212059762195550   T   T   T
  0.5585028949454519  0.0840367537130671  0.6212059762195550   T   T   T
  0.9335028949454511  0.9590367537130670  0.6212059762195550   T   T   T
  0.3085028949454512  0.8340367537130668  0.6212059762195551   T   T   T
  0.8085028949454514  0.3340367537130671  0.6212059762195549   T   T   T
  0.1835028949454515  0.2090367537130672  0.6212059762195549   T   T   T
  0.3307444458437797  0.4662800862368340  0.5601451967909102   T   T   T
  0.5807444458437794  0.7162800862368339  0.5601451967909102   T   T   T
  0.9557444458437793  0.5912800862368338  0.5601451967909101   T   T   T
  0.4557444458437795  0.0912800862368340  0.5601451967909102   T   T   T
  0.8307444458437793  0.9662800862368338  0.5601451967909099   T   T   T
  0.2057444458437795  0.8412800862368340  0.5601451967909102   T   T   T
  0.7057444458437793  0.3412800862368340  0.5601451967909102   T   T   T
  0.0807444458437801  0.2162800862368338  0.5601451967909102   T   T   T
  0.5184922339188102  0.3703261505555759  0.5636802412660180   T   T   T
  0.7684922339188097  0.6203261505555759  0.5636802412660180   T   T   T
  0.1434922339188104  0.4953261505555760  0.5636802412660182   T   T   T
  0.6434922339188102  0.9953261505555759  0.5636802412660179   T   T   T
  0.0184922339188103  0.8703261505555758  0.5636802412660181   T   T   T
  0.3934922339188103  0.7453261505555761  0.5636802412660180   T   T   T
  0.8934922339188101  0.2453261505555758  0.5636802412660182   T   T   T
  0.2684922339188101  0.1203261505555758  0.5636802412660181   T   T   T
  0.2095130775398636  0.3236000056386868  0.5690206302941412   T   T   T
  0.4595130775398637  0.5736000056386866  0.5690206302941413   T   T   T
  0.8345130775398640  0.4486000056386866  0.5690206302941413   T   T   T
  0.3345130775398634  0.9486000056386865  0.5690206302941413   T   T   T
  0.7095130775398635  0.8236000056386866  0.5690206302941413   T   T   T
  0.0845130775398635  0.6986000056386865  0.5690206302941414   T   T   T
  0.5845130775398636  0.1986000056386864  0.5690206302941414   T   T   T
  0.9595130775398634  0.0736000056386863  0.5690206302941412   T   T   T
  0.6397245996991388  0.5130059784646152  0.5548048255667860   T   T   T
  0.8897245996991392  0.7630059784646152  0.5548048255667858   T   T   T
  0.2647245996991391  0.6380059784646153  0.5548048255667860   T   T   T
  0.7647245996991391  0.1380059784646154  0.5548048255667861   T   T   T
  0.1397245996991388  0.0130059784646151  0.5548048255667859   T   T   T
  0.5147245996991385  0.8880059784646149  0.5548048255667860   T   T   T
  0.0147245996991390  0.3880059784646151  0.5548048255667860   T   T   T
  0.3897245996991391  0.2630059784646152  0.5548048255667861   T   T   T
  0.5369661505974674  0.5202493109883821  0.4937440461381410   T   T   T
  0.7869661505974676  0.7702493109883822  0.4937440461381409   T   T   T
  0.1619661505974677  0.6452493109883819  0.4937440461381412   T   T   T
  0.6619661505974676  0.1452493109883822  0.4937440461381412   T   T   T
  0.0369661505974679  0.0202493109883820  0.4937440461381412   T   T   T
  0.4119661505974671  0.8952493109883821  0.4937440461381413   T   T   T
  0.9119661505974678  0.3952493109883820  0.4937440461381412   T   T   T
  0.2869661505974667  0.2702493109883822  0.4937440461381412   T   T   T
  0.7247139386724977  0.4242953753071240  0.4972790906132492   T   T   T
  0.9747139386724980  0.6742953753071240  0.4972790906132491   T   T   T
  0.3497139386724977  0.5492953753071241  0.4972790906132492   T   T   T
  0.8497139386724972  0.0492953753071240  0.4972790906132492   T   T   T
  0.2247139386724976  0.9242953753071240  0.4972790906132490   T   T   T
  0.5997139386724984  0.7992953753071239  0.4972790906132490   T   T   T
  0.0997139386724976  0.2992953753071240  0.4972790906132491   T   T   T
  0.4747139386724978  0.1742953753071242  0.4972790906132491   T   T   T
  0.4157347822935513  0.3775692303902348  0.5026194796413721   T   T   T
  0.6657347822935514  0.6275692303902347  0.5026194796413721   T   T   T
  0.0407347822935511  0.5025692303902346  0.5026194796413724   T   T   T
  0.5407347822935512  0.0025692303902348  0.5026194796413724   T   T   T
  0.9157347822935511  0.8775692303902346  0.5026194796413722   T   T   T
  0.2907347822935514  0.7525692303902345  0.5026194796413721   T   T   T
  0.7907347822935513  0.2525692303902348  0.5026194796413723   T   T   T
  0.1657347822935515  0.1275692303902348  0.5026194796413723   T   T   T
  0.8459463044528270  0.5669752032161633  0.4884036749140169   T   T   T
  0.0959463044528268  0.8169752032161632  0.4884036749140169   T   T   T
  0.4709463044528268  0.6919752032161633  0.4884036749140169   T   T   T
  0.9709463044528274  0.1919752032161633  0.4884036749140169   T   T   T
  0.3459463044528269  0.0669752032161631  0.4884036749140169   T   T   T
  0.7209463044528265  0.9419752032161631  0.4884036749140168   T   T   T
  0.2209463044528273  0.4419752032161633  0.4884036749140169   T   T   T
  0.5959463044528268  0.3169752032161633  0.4884036749140169   T   T   T
  0.7954567947531580  0.7727266394088954  0.2136099517789457   F   F   F
  0.6590931583895216  0.9545448212270773  0.2136099517789457   F   F   F
  0.7500022492986130  0.4999993666816228  0.2136099517789457   F   F   F
  0.6136386129349767  0.6818175484998048  0.2136099517789457   F   F   F
  0.4772749765713403  0.8636357303179866  0.2136099517789457   F   F   F
  0.7045477038440671  0.2272720939543500  0.2136099517789455   F   F   F
  0.5681840674804313  0.4090902757725319  0.2136099517789455   F   F   F
  0.4318204311167949  0.5909084575907138  0.2136099517789455   F   F   F
  0.2954567947531585  0.7727266394088955  0.2136099517789457   F   F   F
  0.1590931583895221  0.9545448212270773  0.2136099517789457   F   F   F
  0.5227295220258857  0.1363630030452591  0.2136099517789457   F   F   F
  0.3863658856622493  0.3181811848634409  0.2136099517789457   F   F   F
  0.2500022492986129  0.4999993666816228  0.2136099517789457   F   F   F
  0.1136386129349765  0.6818175484998046  0.2136099517789455   F   F   F
  0.9772749765713401  0.8636357303179865  0.2136099517789456   F   F   F
  0.3409113402077036  0.0454539121361682  0.2136099517789456   F   F   F
  0.2045477038440674  0.2272720939543500  0.2136099517789456   F   F   F
  0.0681840674804310  0.4090902757725318  0.2136099517789456   F   F   F
  0.9318204311167945  0.5909084575907135  0.2136099517789457   F   F   F
  0.0227295220258856  0.1363630030452591  0.2136099517789456   F   F   F
  0.8863658856622494  0.3181811848634410  0.2136099517789457   F   F   F
  0.8409113402077039  0.0454539121361682  0.2136099517789455   F   F   F
  0.7954567947531580  0.7727266394088954  0.2967360338407661   F   F   F
  0.6590931583895216  0.9545448212270773  0.2967360338407661   F   F   F
  0.7500022492986130  0.4999993666816228  0.2967360338407661   F   F   F
  0.6136386129349767  0.6818175484998048  0.2967360338407661   F   F   F
  0.4772749765713403  0.8636357303179866  0.2967360338407661   F   F   F
  0.7045477038440671  0.2272720939543500  0.2967360338407661   F   F   F
  0.5681840674804313  0.4090902757725319  0.2967360338407661   F   F   F
  0.4318204311167949  0.5909084575907138  0.2967360338407661   F   F   F
  0.2954567947531585  0.7727266394088955  0.2967360338407661   F   F   F
  0.1590931583895221  0.9545448212270773  0.2967360338407661   F   F   F
  0.5227295220258857  0.1363630030452591  0.2967360338407661   F   F   F
  0.3863658856622493  0.3181811848634409  0.2967360338407661   F   F   F
  0.2500022492986129  0.4999993666816228  0.2967360338407661   F   F   F
  0.1136386129349765  0.6818175484998046  0.2967360338407661   F   F   F
  0.9772749765713401  0.8636357303179865  0.2967360338407661   F   F   F
  0.3409113402077036  0.0454539121361682  0.2967360338407661   F   F   F
  0.2045477038440674  0.2272720939543500  0.2967360338407661   F   F   F
  0.0681840674804310  0.4090902757725318  0.2967360338407661   F   F   F
  0.9318204311167945  0.5909084575907135  0.2967360338407661   F   F   F
  0.0227295220258856  0.1363630030452591  0.2967360338407661   F   F   F
  0.8863658856622494  0.3181811848634410  0.2967360338407661   F   F   F
  0.8409113402077039  0.0454539121361682  0.2967360338407661   F   F   F
  0.7954567947531580  0.7727266394088954  0.3798621159025864   T   T   T
  0.6590931583895216  0.9545448212270773  0.3798621159025863   T   T   T
  0.7500022492986130  0.4999993666816228  0.3798621159025865   T   T   T
  0.6136386129349767  0.6818175484998048  0.3798621159025866   T   T   T
  0.4772749765713403  0.8636357303179866  0.3798621159025866   T   T   T
  0.7045477038440671  0.2272720939543500  0.3798621159025865   T   T   T
  0.5681840674804313  0.4090902757725319  0.3798621159025865   T   T   T
  0.4318204311167949  0.5909084575907138  0.3798621159025865   T   T   T
  0.2954567947531585  0.7727266394088955  0.3798621159025865   T   T   T
  0.1590931583895221  0.9545448212270773  0.3798621159025865   T   T   T
  0.5227295220258857  0.1363630030452591  0.3798621159025865   T   T   T
  0.3863658856622493  0.3181811848634409  0.3798621159025865   T   T   T
  0.2500022492986129  0.4999993666816228  0.3798621159025865   T   T   T
  0.1136386129349765  0.6818175484998046  0.3798621159025865   T   T   T
  0.9772749765713401  0.8636357303179865  0.3798621159025863   T   T   T
  0.3409113402077036  0.0454539121361682  0.3798621159025866   T   T   T
  0.2045477038440674  0.2272720939543500  0.3798621159025866   T   T   T
  0.0681840674804310  0.4090902757725318  0.3798621159025865   T   T   T
  0.9318204311167945  0.5909084575907135  0.3798621159025866   T   T   T
  0.0227295220258856  0.1363630030452591  0.3798621159025866   T   T   T
  0.8863658856622494  0.3181811848634410  0.3798621159025865   T   T   T
  0.8409113402077039  0.0454539121361682  0.3798621159025865   T   T   T
  0.7272743363648624  0.8636359743273767  0.2136101807164555   F   F   F
  0.5909107000012259  0.0454541561455584  0.2136101807164555   F   F   F
  0.6818197909103172  0.5909087016001039  0.2136101807164555   F   F   F
  0.5454561545466805  0.7727268834182858  0.2136101807164555   F   F   F
  0.4090925181830443  0.9545450652364675  0.2136101807164555   F   F   F
  0.6363652454557714  0.3181814288728311  0.2136101807164554   F   F   F
  0.5000016090921353  0.4999996106910130  0.2136101807164554   F   F   F
  0.3636379727284990  0.6818177925091948  0.2136101807164555   F   F   F
  0.2272743363648626  0.8636359743273767  0.2136101807164555   F   F   F
  0.0909107000012262  0.0454541561455586  0.2136101807164555   F   F   F
  0.4545470636375897  0.2272723379637402  0.2136101807164555   F   F   F
  0.3181834272739534  0.4090905197819220  0.2136101807164555   F   F   F
  0.1818197909103171  0.5909087016001040  0.2136101807164554   F   F   F
  0.0454561545466806  0.7727268834182858  0.2136101807164554   F   F   F
  0.9090925181830443  0.9545450652364675  0.2136101807164555   F   F   F
  0.2727288818194079  0.1363632470546493  0.2136101807164555   F   F   F
  0.1363652454557715  0.3181814288728311  0.2136101807164555   F   F   F
  0.0000016090921351  0.4999996106910129  0.2136101807164555   F   F   F
  0.8636379727284990  0.6818177925091946  0.2136101807164555   F   F   F
  0.9545470636375896  0.2272723379637402  0.2136101807164555   F   F   F
  0.8181834272739533  0.4090905197819220  0.2136101807164555   F   F   F
  0.7727288818194080  0.1363632470546493  0.2136101807164554   F   F   F
  0.7045470704651579  0.7272718045672671  0.2136102798549741   F   F   F
  0.5681834341015219  0.9090899863854488  0.2136102798549741   F   F   F
  0.6590925250106127  0.4545445318399944  0.2136102798549740   F   F   F
  0.5227288886469761  0.6363627136581762  0.2136102798549741   F   F   F
  0.3863652522833399  0.8181808954763579  0.2136102798549741   F   F   F
  0.6136379795560670  0.1818172591127214  0.2136102798549740   F   F   F
  0.4772743431924306  0.3636354409309033  0.2136102798549740   F   F   F
  0.3409107068287942  0.5454536227490850  0.2136102798549740   F   F   F
  0.2045470704651579  0.7272718045672669  0.2136102798549740   F   F   F
  0.0681834341015216  0.9090899863854490  0.2136102798549739   F   F   F
  0.4318197977378851  0.0909081682036305  0.2136102798549740   F   F   F
  0.2954561613742488  0.2727263500218123  0.2136102798549740   F   F   F
  0.1590925250106123  0.4545445318399942  0.2136102798549740   F   F   F
  0.0227288886469759  0.6363627136581761  0.2136102798549740   F   F   F
  0.8863652522833397  0.8181808954763580  0.2136102798549741   F   F   F
  0.2500016159197034  0.9999990772945396  0.2136102798549741   F   F   F
  0.1136379795560670  0.1818172591127214  0.2136102798549740   F   F   F
  0.9772743431924306  0.3636354409309033  0.2136102798549741   F   F   F
  0.8409107068287944  0.5454536227490852  0.2136102798549741   F   F   F
  0.9318197977378850  0.0909081682036305  0.2136102798549739   F   F   F
  0.7954561613742488  0.2727263500218123  0.2136102798549740   F   F   F
  0.7500016159197034  0.9999990772945396  0.2136102798549741   F   F   F
  0.7954565910824839  0.7727265172381905  0.2551735047785271   F   F   F
  0.6590929547188473  0.9545446990563721  0.2551735047785271   F   F   F
  0.7500020456279384  0.4999992445109177  0.2551735047785271   F   F   F
  0.6136384092643021  0.6818174263290996  0.2551735047785271   F   F   F
  0.4772747729006656  0.8636356081472814  0.2551735047785271   F   F   F
  0.7045475001733931  0.2272719717836449  0.2551735047785269   F   F   F
  0.5681838638097565  0.4090901536018267  0.2551735047785269   F   F   F
  0.4318202274461204  0.5909083354200085  0.2551735047785269   F   F   F
  0.2954565910824839  0.7727265172381905  0.2551735047785270   F   F   F
  0.1590929547188474  0.9545446990563724  0.2551735047785270   F   F   F
  0.5227293183552113  0.1363628808745540  0.2551735047785271   F   F   F
  0.3863656819915748  0.3181810626927358  0.2551735047785270   F   F   F
  0.2500020456279385  0.4999992445109176  0.2551735047785270   F   F   F
  0.1136384092643021  0.6818174263290996  0.2551735047785269   F   F   F
  0.9772747729006657  0.8636356081472812  0.2551735047785271   F   F   F
  0.3409111365370294  0.0454537899654630  0.2551735047785271   F   F   F
  0.2045475001733931  0.2272719717836449  0.2551735047785271   F   F   F
  0.0681838638097566  0.4090901536018268  0.2551735047785271   F   F   F
  0.9318202274461200  0.5909083354200084  0.2551735047785271   F   F   F
  0.0227293183552112  0.1363628808745540  0.2551735047785271   F   F   F
  0.8863656819915747  0.3181810626927358  0.2551735047785271   F   F   F
  0.8409111365370294  0.0454537899654631  0.2551735047785269   F   F   F
  0.7272743363648624  0.8636359743273767  0.2967362627782760   F   F   F
  0.5909107000012259  0.0454541561455584  0.2967362627782760   F   F   F
  0.6818197909103172  0.5909087016001039  0.2967362627782760   F   F   F
  0.5454561545466805  0.7727268834182858  0.2967362627782760   F   F   F
  0.4090925181830443  0.9545450652364675  0.2967362627782760   F   F   F
  0.6363652454557714  0.3181814288728311  0.2967362627782760   F   F   F
  0.5000016090921353  0.4999996106910130  0.2967362627782760   F   F   F
  0.3636379727284990  0.6818177925091948  0.2967362627782760   F   F   F
  0.2272743363648626  0.8636359743273767  0.2967362627782760   F   F   F
  0.0909107000012262  0.0454541561455586  0.2967362627782760   F   F   F
  0.4545470636375897  0.2272723379637402  0.2967362627782760   F   F   F
  0.3181834272739534  0.4090905197819220  0.2967362627782760   F   F   F
  0.1818197909103171  0.5909087016001040  0.2967362627782759   F   F   F
  0.0454561545466806  0.7727268834182858  0.2967362627782760   F   F   F
  0.9090925181830443  0.9545450652364675  0.2967362627782760   F   F   F
  0.2727288818194079  0.1363632470546493  0.2967362627782760   F   F   F
  0.1363652454557715  0.3181814288728311  0.2967362627782760   F   F   F
  0.0000016090921351  0.4999996106910129  0.2967362627782760   F   F   F
  0.8636379727284990  0.6818177925091946  0.2967362627782760   F   F   F
  0.9545470636375896  0.2272723379637402  0.2967362627782760   F   F   F
  0.8181834272739533  0.4090905197819220  0.2967362627782760   F   F   F
  0.7727288818194080  0.1363632470546493  0.2967362627782760   F   F   F
  0.7045470704651579  0.7272718045672671  0.2967363619167945   F   F   F
  0.5681834341015219  0.9090899863854488  0.2967363619167945   F   F   F
  0.6590925250106127  0.4545445318399944  0.2967363619167943   F   F   F
  0.5227288886469761  0.6363627136581762  0.2967363619167944   F   F   F
  0.3863652522833399  0.8181808954763579  0.2967363619167944   F   F   F
  0.6136379795560670  0.1818172591127214  0.2967363619167944   F   F   F
  0.4772743431924306  0.3636354409309033  0.2967363619167943   F   F   F
  0.3409107068287942  0.5454536227490850  0.2967363619167943   F   F   F
  0.2045470704651579  0.7272718045672669  0.2967363619167943   F   F   F
  0.0681834341015216  0.9090899863854490  0.2967363619167943   F   F   F
  0.4318197977378851  0.0909081682036305  0.2967363619167945   F   F   F
  0.2954561613742488  0.2727263500218123  0.2967363619167945   F   F   F
  0.1590925250106123  0.4545445318399942  0.2967363619167945   F   F   F
  0.0227288886469759  0.6363627136581761  0.2967363619167945   F   F   F
  0.8863652522833397  0.8181808954763580  0.2967363619167945   F   F   F
  0.2500016159197034  0.9999990772945396  0.2967363619167945   F   F   F
  0.1136379795560670  0.1818172591127214  0.2967363619167945   F   F   F
  0.9772743431924306  0.3636354409309033  0.2967363619167945   F   F   F
  0.8409107068287944  0.5454536227490852  0.2967363619167945   F   F   F
  0.9318197977378850  0.0909081682036305  0.2967363619167943   F   F   F
  0.7954561613742488  0.2727263500218123  0.2967363619167943   F   F   F
  0.7500016159197034  0.9999990772945396  0.2967363619167945   F   F   F
  0.7954565910824839  0.7727265172381905  0.3382995868403476   T   T   T
  0.6590929547188473  0.9545446990563721  0.3382995868403476   T   T   T
  0.7500020456279384  0.4999992445109177  0.3382995868403476   T   T   T
  0.6136384092643021  0.6818174263290996  0.3382995868403476   T   T   T
  0.4772747729006656  0.8636356081472814  0.3382995868403476   T   T   T
  0.7045475001733931  0.2272719717836449  0.3382995868403474   T   T   T
  0.5681838638097565  0.4090901536018267  0.3382995868403476   T   T   T
  0.4318202274461204  0.5909083354200085  0.3382995868403476   T   T   T
  0.2954565910824839  0.7727265172381905  0.3382995868403476   T   T   T
  0.1590929547188474  0.9545446990563724  0.3382995868403476   T   T   T
  0.5227293183552113  0.1363628808745540  0.3382995868403475   T   T   T
  0.3863656819915748  0.3181810626927358  0.3382995868403475   T   T   T
  0.2500020456279385  0.4999992445109176  0.3382995868403475   T   T   T
  0.1136384092643021  0.6818174263290996  0.3382995868403474   T   T   T
  0.9772747729006657  0.8636356081472812  0.3382995868403475   T   T   T
  0.3409111365370294  0.0454537899654630  0.3382995868403475   T   T   T
  0.2045475001733931  0.2272719717836449  0.3382995868403475   T   T   T
  0.0681838638097566  0.4090901536018268  0.3382995868403475   T   T   T
  0.9318202274461200  0.5909083354200084  0.3382995868403476   T   T   T
  0.0227293183552112  0.1363628808745540  0.3382995868403476   T   T   T
  0.8863656819915747  0.3181810626927358  0.3382995868403476   T   T   T
  0.8409111365370294  0.0454537899654631  0.3382995868403474   T   T   T
  0.7272743363648624  0.8636359743273767  0.3798623448400962   T   T   T
  0.5909107000012259  0.0454541561455584  0.3798623448400963   T   T   T
  0.6818197909103172  0.5909087016001039  0.3798623448400963   T   T   T
  0.5454561545466805  0.7727268834182858  0.3798623448400965   T   T   T
  0.4090925181830443  0.9545450652364675  0.3798623448400965   T   T   T
  0.6363652454557714  0.3181814288728311  0.3798623448400963   T   T   T
  0.5000016090921353  0.4999996106910130  0.3798623448400963   T   T   T
  0.3636379727284990  0.6818177925091948  0.3798623448400963   T   T   T
  0.2272743363648626  0.8636359743273767  0.3798623448400963   T   T   T
  0.0909107000012262  0.0454541561455586  0.3798623448400963   T   T   T
  0.4545470636375897  0.2272723379637402  0.3798623448400963   T   T   T
  0.3181834272739534  0.4090905197819220  0.3798623448400963   T   T   T
  0.1818197909103171  0.5909087016001040  0.3798623448400963   T   T   T
  0.0454561545466806  0.7727268834182858  0.3798623448400963   T   T   T
  0.9090925181830443  0.9545450652364675  0.3798623448400962   T   T   T
  0.2727288818194079  0.1363632470546493  0.3798623448400963   T   T   T
  0.1363652454557715  0.3181814288728311  0.3798623448400963   T   T   T
  0.0000016090921351  0.4999996106910129  0.3798623448400963   T   T   T
  0.8636379727284990  0.6818177925091946  0.3798623448400965   T   T   T
  0.9545470636375896  0.2272723379637402  0.3798623448400963   T   T   T
  0.8181834272739533  0.4090905197819220  0.3798623448400963   T   T   T
  0.7727288818194080  0.1363632470546493  0.3798623448400963   T   T   T
  0.7045470704651579  0.7272718045672671  0.3798624439786150   T   T   T
  0.5681834341015219  0.9090899863854488  0.3798624439786150   T   T   T
  0.6590925250106127  0.4545445318399944  0.3798624439786150   T   T   T
  0.5227288886469761  0.6363627136581762  0.3798624439786150   T   T   T
  0.3863652522833399  0.8181808954763579  0.3798624439786150   T   T   T
  0.6136379795560670  0.1818172591127214  0.3798624439786150   T   T   T
  0.4772743431924306  0.3636354409309033  0.3798624439786150   T   T   T
  0.3409107068287942  0.5454536227490850  0.3798624439786150   T   T   T
  0.2045470704651579  0.7272718045672669  0.3798624439786150   T   T   T
  0.0681834341015216  0.9090899863854490  0.3798624439786150   T   T   T
  0.4318197977378851  0.0909081682036305  0.3798624439786150   T   T   T
  0.2954561613742488  0.2727263500218123  0.3798624439786150   T   T   T
  0.1590925250106123  0.4545445318399942  0.3798624439786150   T   T   T
  0.0227288886469759  0.6363627136581761  0.3798624439786150   T   T   T
  0.8863652522833397  0.8181808954763580  0.3798624439786148   T   T   T
  0.2500016159197034  0.9999990772945396  0.3798624439786150   T   T   T
  0.1136379795560670  0.1818172591127214  0.3798624439786150   T   T   T
  0.9772743431924306  0.3636354409309033  0.3798624439786150   T   T   T
  0.8409107068287944  0.5454536227490852  0.3798624439786150   T   T   T
  0.9318197977378850  0.0909081682036305  0.3798624439786150   T   T   T
  0.7954561613742488  0.2727263500218123  0.3798624439786150   T   T   T
  0.7500016159197034  0.9999990772945396  0.3798624439786148   T   T   T
  0.7954565910824839  0.7727265172381905  0.4214256689021677   T   T   T
  0.6590929547188473  0.9545446990563721  0.4214256689021677   T   T   T
  0.7500020456279384  0.4999992445109177  0.4214256689021679   T   T   T
  0.6136384092643021  0.6818174263290996  0.4214256689021679   T   T   T
  0.4772747729006656  0.8636356081472814  0.4214256689021679   T   T   T
  0.7045475001733931  0.2272719717836449  0.4214256689021679   T   T   T
  0.5681838638097565  0.4090901536018267  0.4214256689021679   T   T   T
  0.4318202274461204  0.5909083354200085  0.4214256689021679   T   T   T
  0.2954565910824839  0.7727265172381905  0.4214256689021679   T   T   T
  0.1590929547188474  0.9545446990563724  0.4214256689021679   T   T   T
  0.5227293183552113  0.1363628808745540  0.4214256689021679   T   T   T
  0.3863656819915748  0.3181810626927358  0.4214256689021679   T   T   T
  0.2500020456279385  0.4999992445109176  0.4214256689021679   T   T   T
  0.1136384092643021  0.6818174263290996  0.4214256689021679   T   T   T
  0.9772747729006657  0.8636356081472812  0.4214256689021677   T   T   T
  0.3409111365370294  0.0454537899654630  0.4214256689021679   T   T   T
  0.2045475001733931  0.2272719717836449  0.4214256689021679   T   T   T
  0.0681838638097566  0.4090901536018268  0.4214256689021679   T   T   T
  0.9318202274461200  0.5909083354200084  0.4214256689021679   T   T   T
  0.0227293183552112  0.1363628808745540  0.4214256689021679   T   T   T
  0.8863656819915747  0.3181810626927358  0.4214256689021679   T   T   T
  0.8409111365370294  0.0454537899654631  0.4214256689021679   T   T   T
  0.9887906060877266  0.2579556846941721  0.7565141191408107   T   T   T
  0.2387906060877264  0.5079556846941721  0.7565141191408107   T   T   T
  0.6137906060877265  0.3829556846941722  0.7565141191408107   T   T   T
  0.1137906060877265  0.8829556846941723  0.7565141191408107   T   T   T
  0.4887906060877262  0.7579556846941722  0.7565141191408107   T   T   T
  0.8637906060877264  0.6329556846941721  0.7565141191408108   T   T   T
  0.3637906060877265  0.1329556846941721  0.7565141191408107   T   T   T
  0.7387906060877266  0.0079556846941722  0.7565141191408107   T   T   T
  0.6231157792268158  0.2548353242403397  0.7657185178716621   T   T   T
  0.8731157792268156  0.5048353242403396  0.7657185178716621   T   T   T
  0.2481157792268160  0.3798353242403394  0.7657185178716621   T   T   T
  0.7481157792268158  0.8798353242403397  0.7657185178716621   T   T   T
  0.1231157792268160  0.7548353242403395  0.7657185178716621   T   T   T
  0.4981157792268161  0.6298353242403397  0.7657185178716621   T   T   T
  0.9981157792268156  0.1298353242403399  0.7657185178716621   T   T   T
  0.3731157792268160  0.0048353242403397  0.7657185178716621   T   T   T
  0.6997811239950145  0.1308052555066638  0.7872348899107648   T   T   T
  0.9497811239950151  0.3808052555066638  0.7872348899107650   T   T   T
  0.3247811239950150  0.2558052555066637  0.7872348899107648   T   T   T
  0.8247811239950151  0.7558052555066639  0.7872348899107650   T   T   T
  0.1997811239950151  0.6308052555066638  0.7872348899107648   T   T   T
  0.5747811239950150  0.5058052555066638  0.7872348899107650   T   T   T
  0.0747811239950152  0.0058052555066637  0.7872348899107648   T   T   T
  0.4497811239950147  0.8808052555066638  0.7872348899107650   T   T   T
  0.9121255353718084  0.3819850377873910  0.7349974659734143   T   T   T
  0.1621255353718083  0.6319850377873908  0.7349974659734142   T   T   T
  0.5371255353718082  0.5069850377873908  0.7349974659734143   T   T   T
  0.0371255353718083  0.0069850377873911  0.7349974659734142   T   T   T
  0.4121255353718087  0.8819850377873910  0.7349974659734143   T   T   T
  0.7871255353718086  0.7569850377873910  0.7349974659734143   T   T   T
  0.2871255353718085  0.2569850377873910  0.7349974659734142   T   T   T
  0.6621255353718082  0.1319850377873911  0.7349974659734142   T   T   T
  0.8651831867384011  0.1172519662613455  0.7792078200644634   T   T   T
  0.1151831867384017  0.3672519662613454  0.7792078200644634   T   T   T
  0.4901831867384017  0.2422519662613455  0.7792078200644634   T   T   T
  0.9901831867384016  0.7422519662613454  0.7792078200644632   T   T   T
  0.3651831867384017  0.6172519662613456  0.7792078200644634   T   T   T
  0.7401831867384013  0.4922519662613455  0.7792078200644632   T   T   T
  0.2401831867384017  0.9922519662613454  0.7792078200644632   T   T   T
  0.6151831867384013  0.8672519662613455  0.7792078200644632   T   T   T
  0.7467235217115769  0.3955388789796256  0.7430247226698474   T   T   T
  0.9967235217115767  0.6455388789796255  0.7430247226698474   T   T   T
  0.3717235217115771  0.5205388789796255  0.7430247226698476   T   T   T
  0.8717235217115767  0.0205388789796255  0.7430247226698473   T   T   T
  0.2467235217115773  0.8955388789796257  0.7430247226698474   T   T   T
  0.6217235217115769  0.7705388789796256  0.7430247226698474   T   T   T
  0.1217235217115772  0.2705388789796256  0.7430247226698473   T   T   T
  0.4967235217115772  0.1455388789796256  0.7430247226698473   T   T   T
  0.8304327613528365  0.3029577887764817  0.7751724753540200   T   T   T
  0.0804327613528366  0.5529577887764818  0.7751724753540199   T   T   T
  0.4554327613528369  0.4279577887764817  0.7751724753540199   T   T   T
  0.9554327613528365  0.9279577887764817  0.7751724753540199   T   T   T
  0.3304327613528365  0.8029577887764816  0.7751724753540200   T   T   T
  0.7054327613528364  0.6779577887764817  0.7751724753540200   T   T   T
  0.2054327613528368  0.1779577887764817  0.7751724753540199   T   T   T
  0.5804327613528366  0.0529577887764819  0.7751724753540199   T   T   T
  0.7814740776898873  0.2098330855228034  0.7470602009215266   T   T   T
  0.0314740776898868  0.4598330855228033  0.7470602009215266   T   T   T
  0.4064740776898876  0.3348330855228032  0.7470602009215266   T   T   T
  0.9064740776898874  0.8348330855228032  0.7470602009215266   T   T   T
  0.2814740776898876  0.7098330855228033  0.7470602009215266   T   T   T
  0.6564740776898872  0.5848330855228033  0.7470602009215266   T   T   T
  0.1564740776898879  0.0848330855228035  0.7470602009215266   T   T   T
  0.5314740776898872  0.9598330855228031  0.7470602009215267   T   T   T
  0.1950123108414145  0.3119249094457202  0.6901129684880418   T   T   T
  0.4450123108414146  0.5619249094457200  0.6901129684880418   T   T   T
  0.8200123108414140  0.4369249094457203  0.6901129684880418   T   T   T
  0.3200123108414143  0.9369249094457202  0.6901129684880418   T   T   T
  0.6950123108414140  0.8119249094457203  0.6901129684880418   T   T   T
  0.0700123108414146  0.6869249094457202  0.6901129684880418   T   T   T
  0.5700123108414142  0.1869249094457202  0.6901129684880418   T   T   T
  0.9450123108414140  0.0619249094457204  0.6901129684880420   T   T   T
  0.8293374839805038  0.3088045489918878  0.6993173672188933   T   T   T
  0.0793374839805040  0.5588045489918877  0.6993173672188933   T   T   T
  0.4543374839805038  0.4338045489918876  0.6993173672188933   T   T   T
  0.9543374839805039  0.9338045489918879  0.6993173672188929   T   T   T
  0.3293374839805038  0.8088045489918876  0.6993173672188933   T   T   T
  0.7043374839805042  0.6838045489918877  0.6993173672188931   T   T   T
  0.2043374839805041  0.1838045489918879  0.6993173672188933   T   T   T
  0.5793374839805038  0.0588045489918876  0.6993173672188928   T   T   T
  0.9060028287487029  0.1847744802582119  0.7208337392579960   T   T   T
  0.1560028287487029  0.4347744802582118  0.7208337392579960   T   T   T
  0.5310028287487023  0.3097744802582117  0.7208337392579960   T   T   T
  0.0310028287487033  0.8097744802582120  0.7208337392579960   T   T   T
  0.4060028287487029  0.6847744802582119  0.7208337392579960   T   T   T
  0.7810028287487029  0.5597744802582117  0.7208337392579960   T   T   T
  0.2810028287487030  0.0597744802582119  0.7208337392579960   T   T   T
  0.6560028287487029  0.9347744802582116  0.7208337392579960   T   T   T
  0.1183472401254961  0.4359542625389391  0.6685963153206452   T   T   T
  0.3683472401254960  0.6859542625389389  0.6685963153206452   T   T   T
  0.7433472401254960  0.5609542625389390  0.6685963153206452   T   T   T
  0.2433472401254963  0.0609542625389390  0.6685963153206450   T   T   T
  0.6183472401254968  0.9359542625389391  0.6685963153206449   T   T   T
  0.9933472401254961  0.8109542625389392  0.6685963153206449   T   T   T
  0.4933472401254961  0.3109542625389390  0.6685963153206452   T   T   T
  0.8683472401254958  0.1859542625389391  0.6685963153206452   T   T   T
  0.0714048914920902  0.1712211910128935  0.7128066694116942   T   T   T
  0.3214048914920897  0.4212211910128935  0.7128066694116942   T   T   T
  0.6964048914920896  0.2962211910128937  0.7128066694116942   T   T   T
  0.1964048914920896  0.7962211910128937  0.7128066694116942   T   T   T
  0.5714048914920897  0.6712211910128935  0.7128066694116946   T   T   T
  0.9464048914920895  0.5462211910128938  0.7128066694116942   T   T   T
  0.4464048914920897  0.0462211910128936  0.7128066694116942   T   T   T
  0.8214048914920896  0.9212211910128933  0.7128066694116945   T   T   T
  0.9529452264652651  0.4495081037311737  0.6766235720170786   T   T   T
  0.2029452264652649  0.6995081037311736  0.6766235720170783   T   T   T
  0.5779452264652648  0.5745081037311734  0.6766235720170783   T   T   T
  0.0779452264652654  0.0745081037311737  0.6766235720170781   T   T   T
  0.4529452264652651  0.9495081037311738  0.6766235720170783   T   T   T
  0.8279452264652648  0.8245081037311737  0.6766235720170783   T   T   T
  0.3279452264652651  0.3245081037311737  0.6766235720170783   T   T   T
  0.7029452264652654  0.1995081037311738  0.6766235720170781   T   T   T
  0.0366544661065243  0.3569270135280299  0.7087713247012510   T   T   T
  0.2866544661065245  0.6069270135280299  0.7087713247012510   T   T   T
  0.6616544661065246  0.4819270135280298  0.7087713247012510   T   T   T
  0.1616544661065247  0.9819270135280299  0.7087713247012507   T   T   T
  0.5366544661065242  0.8569270135280298  0.7087713247012510   T   T   T
  0.9116544661065245  0.7319270135280300  0.7087713247012507   T   T   T
  0.4116544661065249  0.2319270135280297  0.7087713247012510   T   T   T
  0.7866544661065248  0.1069270135280299  0.7087713247012506   T   T   T
  0.9876957824435746  0.2638023102743514  0.6806590502687577   T   T   T
  0.2376957824435753  0.5138023102743512  0.6806590502687576   T   T   T
  0.6126957824435749  0.3888023102743514  0.6806590502687575   T   T   T
  0.1126957824435755  0.8888023102743515  0.6806590502687573   T   T   T
  0.4876957824435748  0.7638023102743514  0.6806590502687575   T   T   T
  0.8626957824435748  0.6388023102743513  0.6806590502687577   T   T   T
  0.3626957824435753  0.1388023102743515  0.6806590502687576   T   T   T
  0.7376957824435757  0.0138023102743515  0.6806590502687574   T   T   T
  0.4012340155951024  0.3658941341972684  0.6237118178352730   T   T   T
  0.6512340155951024  0.6158941341972682  0.6237118178352729   T   T   T
  0.0262340155951020  0.4908941341972684  0.6237118178352729   T   T   T
  0.5262340155951023  0.9908941341972682  0.6237118178352729   T   T   T
  0.9012340155951025  0.8658941341972684  0.6237118178352725   T   T   T
  0.2762340155951029  0.7408941341972682  0.6237118178352726   T   T   T
  0.7762340155951025  0.2408941341972682  0.6237118178352726   T   T   T
  0.1512340155951024  0.1158941341972685  0.6237118178352727   T   T   T
  0.0355591887341918  0.3627737737434359  0.6329162165661241   T   T   T
  0.2855591887341917  0.6127737737434360  0.6329162165661241   T   T   T
  0.6605591887341917  0.4877737737434357  0.6329162165661241   T   T   T
  0.1605591887341918  0.9877737737434358  0.6329162165661241   T   T   T
  0.5355591887341919  0.8627737737434359  0.6329162165661238   T   T   T
  0.9105591887341917  0.7377737737434358  0.6329162165661240   T   T   T
  0.4105591887341921  0.2377737737434361  0.6329162165661238   T   T   T
  0.7855591887341916  0.1127737737434359  0.6329162165661241   T   T   T
  0.1122245335023908  0.2387437050097599  0.6544325886052268   T   T   T
  0.3622245335023905  0.4887437050097599  0.6544325886052268   T   T   T
  0.7372245335023903  0.3637437050097598  0.6544325886052268   T   T   T
  0.2372245335023905  0.8637437050097601  0.6544325886052268   T   T   T
  0.6122245335023904  0.7387437050097597  0.6544325886052268   T   T   T
  0.9872245335023907  0.6137437050097599  0.6544325886052266   T   T   T
  0.4872245335023906  0.1137437050097599  0.6544325886052268   T   T   T
  0.8622245335023907  0.9887437050097599  0.6544325886052269   T   T   T
  0.3245689448791839  0.4899234872904871  0.6021951646678764   T   T   T
  0.5745689448791835  0.7399234872904870  0.6021951646678761   T   T   T
  0.9495689448791839  0.6149234872904871  0.6021951646678763   T   T   T
  0.4495689448791838  0.1149234872904873  0.6021951646678765   T   T   T
  0.8245689448791841  0.9899234872904872  0.6021951646678763   T   T   T
  0.1995689448791839  0.8649234872904873  0.6021951646678761   T   T   T
  0.6995689448791836  0.3649234872904872  0.6021951646678764   T   T   T
  0.0745689448791840  0.2399234872904873  0.6021951646678761   T   T   T
  0.2776265962457776  0.2251904157644416  0.6464055187589252   T   T   T
  0.5276265962457773  0.4751904157644416  0.6464055187589253   T   T   T
  0.9026265962457776  0.3501904157644418  0.6464055187589253   T   T   T
  0.4026265962457775  0.8501904157644418  0.6464055187589253   T   T   T
  0.7776265962457778  0.7251904157644417  0.6464055187589253   T   T   T
  0.1526265962457776  0.6001904157644415  0.6464055187589253   T   T   T
  0.6526265962457775  0.1001904157644419  0.6464055187589254   T   T   T
  0.0276265962457774  0.9751904157644417  0.6464055187589252   T   T   T
  0.1591669312189526  0.5034773284827218  0.6102224213643095   T   T   T
  0.4091669312189526  0.7534773284827216  0.6102224213643093   T   T   T
  0.7841669312189526  0.6284773284827215  0.6102224213643093   T   T   T
  0.2841669312189527  0.1284773284827218  0.6102224213643094   T   T   T
  0.6591669312189532  0.0034773284827217  0.6102224213643092   T   T   T
  0.0341669312189528  0.8784773284827218  0.6102224213643092   T   T   T
  0.5341669312189526  0.3784773284827218  0.6102224213643095   T   T   T
  0.9091669312189526  0.2534773284827218  0.6102224213643093   T   T   T
  0.2428761708602121  0.4108962382795779  0.6423701740484818   T   T   T
  0.4928761708602122  0.6608962382795780  0.6423701740484818   T   T   T
  0.8678761708602123  0.5358962382795781  0.6423701740484818   T   T   T
  0.3678761708602120  0.0358962382795778  0.6423701740484818   T   T   T
  0.7428761708602126  0.9108962382795779  0.6423701740484817   T   T   T
  0.1178761708602121  0.7858962382795778  0.6423701740484818   T   T   T
  0.6178761708602125  0.2858962382795778  0.6423701740484818   T   T   T
  0.9928761708602122  0.1608962382795779  0.6423701740484818   T   T   T
  0.1939174871972629  0.3177715350258995  0.6142578996159885   T   T   T
  0.4439174871972629  0.5677715350258994  0.6142578996159885   T   T   T
  0.8189174871972629  0.4427715350258993  0.6142578996159885   T   T   T
  0.3189174871972633  0.9427715350258994  0.6142578996159884   T   T   T
  0.6939174871972632  0.8177715350258995  0.6142578996159884   T   T   T
  0.0689174871972629  0.6927715350258995  0.6142578996159883   T   T   T
  0.5689174871972631  0.1927715350258997  0.6142578996159885   T   T   T
  0.9439174871972631  0.0677715350258994  0.6142578996159883   T   T   T
  0.6074557203487899  0.4198633589488163  0.5573106671825038   T   T   T
  0.8574557203487906  0.6698633589488164  0.5573106671825038   T   T   T
  0.2324557203487907  0.5448633589488167  0.5573106671825037   T   T   T
  0.7324557203487906  0.0448633589488164  0.5573106671825034   T   T   T
  0.1074557203487905  0.9198633589488164  0.5573106671825037   T   T   T
  0.4824557203487905  0.7948633589488163  0.5573106671825035   T   T   T
  0.9824557203487900  0.2948633589488162  0.5573106671825037   T   T   T
  0.3574557203487904  0.1698633589488167  0.5573106671825037   T   T   T
  0.2417808934878793  0.4167429984949840  0.5665150659133551   T   T   T
  0.4917808934878793  0.6667429984949841  0.5665150659133550   T   T   T
  0.8667808934878790  0.5417429984949838  0.5665150659133550   T   T   T
  0.3667808934878796  0.0417429984949840  0.5665150659133548   T   T   T
  0.7417808934878797  0.9167429984949838  0.5665150659133547   T   T   T
  0.1167808934878796  0.7917429984949840  0.5665150659133550   T   T   T
  0.6167808934878796  0.2917429984949840  0.5665150659133551   T   T   T
  0.9917808934878790  0.1667429984949841  0.5665150659133550   T   T   T
  0.3184462382560787  0.2927129297613079  0.5880314379524578   T   T   T
  0.5684462382560787  0.5427129297613080  0.5880314379524577   T   T   T
  0.9434462382560784  0.4177129297613080  0.5880314379524577   T   T   T
  0.4434462382560785  0.9177129297613081  0.5880314379524577   T   T   T
  0.8184462382560784  0.7927129297613080  0.5880314379524575   T   T   T
  0.1934462382560784  0.6677129297613079  0.5880314379524579   T   T   T
  0.6934462382560788  0.1677129297613079  0.5880314379524578   T   T   T
  0.0684462382560785  0.0427129297613079  0.5880314379524578   T   T   T
  0.5307906496328717  0.5438927120420352  0.5357940140151073   T   T   T
  0.7807906496328719  0.7938927120420349  0.5357940140151068   T   T   T
  0.1557906496328714  0.6688927120420352  0.5357940140151074   T   T   T
  0.6557906496328720  0.1688927120420355  0.5357940140151074   T   T   T
  0.0307906496328723  0.0438927120420354  0.5357940140151072   T   T   T
  0.4057906496328721  0.9188927120420354  0.5357940140151073   T   T   T
  0.9057906496328718  0.4188927120420354  0.5357940140151073   T   T   T
  0.2807906496328719  0.2938927120420353  0.5357940140151074   T   T   T
  0.4838483009994656  0.2791596405159898  0.5800043681061561   T   T   T
  0.7338483009994655  0.5291596405159898  0.5800043681061563   T   T   T
  0.1088483009994652  0.4041596405159898  0.5800043681061563   T   T   T
  0.6088483009994652  0.9041596405159898  0.5800043681061562   T   T   T
  0.9838483009994659  0.7791596405159897  0.5800043681061557   T   T   T
  0.3588483009994656  0.6541596405159900  0.5800043681061561   T   T   T
  0.8588483009994655  0.1541596405159898  0.5800043681061563   T   T   T
  0.2338483009994656  0.0291596405159898  0.5800043681061559   T   T   T
  0.3653886359726403  0.5574465532342698  0.5438212707115404   T   T   T
  0.6153886359726408  0.8074465532342699  0.5438212707115402   T   T   T
  0.9903886359726405  0.6824465532342698  0.5438212707115400   T   T   T
  0.4903886359726406  0.1824465532342699  0.5438212707115403   T   T   T
  0.8653886359726406  0.0574465532342699  0.5438212707115401   T   T   T
  0.2403886359726411  0.9324465532342701  0.5438212707115402   T   T   T
  0.7403886359726406  0.4324465532342699  0.5438212707115403   T   T   T
  0.1153886359726413  0.3074465532342699  0.5438212707115403   T   T   T
  0.4490978756139001  0.4648654630311261  0.5759690233957128   T   T   T
  0.6990978756139007  0.7148654630311261  0.5759690233957125   T   T   T
  0.0740978756139002  0.5898654630311262  0.5759690233957127   T   T   T
  0.5740978756139002  0.0898654630311261  0.5759690233957127   T   T   T
  0.9490978756138998  0.9648654630311257  0.5759690233957127   T   T   T
  0.3240978756138998  0.8398654630311260  0.5759690233957128   T   T   T
  0.8240978756138998  0.3398654630311259  0.5759690233957128   T   T   T
  0.1990978756139005  0.2148654630311263  0.5759690233957129   T   T   T
  0.4001391919509507  0.3717407597774476  0.5478567489632195   T   T   T
  0.6501391919509508  0.6217407597774476  0.5478567489632195   T   T   T
  0.0251391919509510  0.4967407597774475  0.5478567489632195   T   T   T
  0.5251391919509509  0.9967407597774475  0.5478567489632195   T   T   T
  0.9001391919509507  0.8717407597774476  0.5478567489632196   T   T   T
  0.2751391919509509  0.7467407597774477  0.5478567489632195   T   T   T
  0.7751391919509512  0.2467407597774479  0.5478567489632192   T   T   T
  0.1501391919509511  0.1217407597774477  0.5478567489632196   T   T   T
  0.8136774251024781  0.4738325837003645  0.4909095165297346   T   T   T
  0.0636774251024777  0.7238325837003645  0.4909095165297346   T   T   T
  0.4386774251024784  0.5988325837003647  0.4909095165297346   T   T   T
  0.9386774251024782  0.0988325837003646  0.4909095165297346   T   T   T
  0.3136774251024776  0.9738325837003643  0.4909095165297347   T   T   T
  0.6886774251024779  0.8488325837003644  0.4909095165297347   T   T   T
  0.1886774251024781  0.3488325837003644  0.4909095165297348   T   T   T
  0.5636774251024776  0.2238325837003646  0.4909095165297346   T   T   T
  0.4480025982415674  0.4707122232465322  0.5001139152605858   T   T   T
  0.6980025982415675  0.7207122232465321  0.5001139152605859   T   T   T
  0.0730025982415679  0.5957122232465319  0.5001139152605858   T   T   T
  0.5730025982415676  0.0957122232465321  0.5001139152605858   T   T   T
  0.9480025982415672  0.9707122232465318  0.5001139152605857   T   T   T
  0.3230025982415675  0.8457122232465322  0.5001139152605859   T   T   T
  0.8230025982415673  0.3457122232465323  0.5001139152605860   T   T   T
  0.1980025982415665  0.2207122232465320  0.5001139152605860   T   T   T
  0.5246679430097664  0.3466821545128561  0.5216302872996887   T   T   T
  0.7746679430097662  0.5966821545128561  0.5216302872996887   T   T   T
  0.1496679430097660  0.4716821545128559  0.5216302872996887   T   T   T
  0.6496679430097667  0.9716821545128560  0.5216302872996884   T   T   T
  0.0246679430097659  0.8466821545128558  0.5216302872996887   T   T   T
  0.3996679430097662  0.7216821545128560  0.5216302872996889   T   T   T
  0.8996679430097659  0.2216821545128559  0.5216302872996890   T   T   T
  0.2746679430097667  0.0966821545128563  0.5216302872996885   T   T   T
  0.7370123543865592  0.5978619367935833  0.4693928633623382   T   T   T
  0.9870123543865594  0.8478619367935830  0.4693928633623381   T   T   T
  0.3620123543865590  0.7228619367935832  0.4693928633623382   T   T   T
  0.8620123543865601  0.2228619367935836  0.4693928633623382   T   T   T
  0.2370123543865589  0.0978619367935837  0.4693928633623383   T   T   T
  0.6120123543865595  0.9728619367935832  0.4693928633623382   T   T   T
  0.1120123543865590  0.4728619367935834  0.4693928633623383   T   T   T
  0.4870123543865597  0.3478619367935832  0.4693928633623382   T   T   T
  0.6900700057531529  0.3331288652675378  0.5136032174533870   T   T   T
  0.9400700057531536  0.5831288652675378  0.5136032174533871   T   T   T
  0.3150700057531531  0.4581288652675380  0.5136032174533870   T   T   T
  0.8150700057531531  0.9581288652675379  0.5136032174533871   T   T   T
  0.1900700057531532  0.8331288652675380  0.5136032174533870   T   T   T
  0.5650700057531530  0.7081288652675379  0.5136032174533871   T   T   T
  0.0650700057531533  0.2081288652675380  0.5136032174533872   T   T   T
  0.4400700057531534  0.0831288652675380  0.5136032174533871   T   T   T
  0.5716103407263287  0.6114157779858181  0.4774201200587713   T   T   T
  0.8216103407263283  0.8614157779858178  0.4774201200587712   T   T   T
  0.1966103407263288  0.7364157779858179  0.4774201200587711   T   T   T
  0.6966103407263285  0.2364157779858181  0.4774201200587711   T   T   T
  0.0716103407263287  0.1114157779858181  0.4774201200587713   T   T   T
  0.4466103407263286  0.9864157779858179  0.4774201200587712   T   T   T
  0.9466103407263282  0.4864157779858180  0.4774201200587713   T   T   T
  0.3216103407263288  0.3614157779858177  0.4774201200587713   T   T   T
  0.6553195803675883  0.5188346877826742  0.5095678727429437   T   T   T
  0.9053195803675880  0.7688346877826741  0.5095678727429435   T   T   T
  0.2803195803675886  0.6438346877826743  0.5095678727429437   T   T   T
  0.7803195803675882  0.1438346877826743  0.5095678727429438   T   T   T
  0.1553195803675885  0.0188346877826740  0.5095678727429436   T   T   T
  0.5303195803675884  0.8938346877826742  0.5095678727429437   T   T   T
  0.0303195803675885  0.3938346877826738  0.5095678727429438   T   T   T
  0.4053195803675883  0.2688346877826742  0.5095678727429438   T   T   T
  0.6063608967046389  0.4257099845289958  0.4814555983104504   T   T   T
  0.8563608967046389  0.6757099845289957  0.4814555983104504   T   T   T
  0.2313608967046383  0.5507099845289956  0.4814555983104504   T   T   T
  0.7313608967046393  0.0507099845289956  0.4814555983104502   T   T   T
  0.1063608967046388  0.9257099845289954  0.4814555983104504   T   T   T
  0.4813608967046384  0.8007099845289958  0.4814555983104504   T   T   T
  0.9813608967046389  0.3007099845289959  0.4814555983104504   T   T   T
  0.3563608967046387  0.1757099845289956  0.4814555983104505   T   T   T
