Hf O 
 1.0000000000000000
    17.4377525157343598    0.0000000000000000    0.0000000000000011
     3.4875505031468674   19.1815277673077951    0.0000000000000012
     0.0000000000000000    0.0000000000000000   46.9070585703796752
 Hf  O  
 160 320
Direct
  0.6310875960455261  0.2184219987590493  0.7593486487492174
  0.6247527103065895  0.2553296730136936  0.5601451967909102
  0.9997527103065903  0.1303296730136934  0.5601451967909102
  0.4375004983816205  0.2843757373324355  0.5636802412660180
  0.6875004983816200  0.5343757373324355  0.5636802412660180
  0.0625004983816207  0.4093757373324356  0.5636802412660182
  0.5625004983816205  0.9093757373324356  0.5636802412660180
  0.9375004983816204  0.7843757373324355  0.5636802412660181
  0.1247527103065897  0.7553296730136937  0.5601451967909102
  0.3125004983816205  0.6593757373324356  0.5636802412660180
  0.1875004983816202  0.0343757373324354  0.5636802412660181
  0.1285213420026739  0.2376495924155464  0.5690206302941412
  0.3785213420026740  0.4876495924155462  0.5690206302941413
  0.7535213420026743  0.3626495924155462  0.5690206302941413
  0.2535213420026736  0.8626495924155462  0.5690206302941413
  0.6285213420026737  0.7376495924155462  0.5690206302941413
  0.0035213420026737  0.6126495924155461  0.5690206302941414
  0.8125004983816205  0.1593757373324354  0.5636802412660182
  0.5035213420026738  0.1126495924155460  0.5690206302941414
  0.7497527103065897  0.8803296730136935  0.5601451967909099
  0.8747527103065895  0.5053296730136935  0.5601451967909101
  0.5472996372489859  0.3086803676639980  0.6354217809469104
  0.0472996372489858  0.8086803676639982  0.6354217809469104
  0.4222996372489861  0.6836803676639981  0.6354217809469102
  0.7972996372489858  0.5586803676639980  0.6354217809469104
  0.2972996372489861  0.0586803676639980  0.6354217809469105
  0.6722996372489858  0.9336803676639981  0.6354217809469099
  0.3525111594082614  0.3730863404899267  0.6212059762195549
  0.3747527103065897  0.0053296730136936  0.5601451967909102
  0.6025111594082618  0.6230863404899267  0.6212059762195549
  0.4775111594082621  0.9980863404899266  0.6212059762195550
  0.8525111594082614  0.8730863404899265  0.6212059762195550
  0.2275111594082615  0.7480863404899266  0.6212059762195551
  0.7275111594082616  0.2480863404899266  0.6212059762195549
  0.1025111594082618  0.1230863404899268  0.6212059762195549
  0.2497527103065898  0.3803296730136936  0.5601451967909102
  0.4997527103065896  0.6303296730136936  0.5601451967909102
  0.9775111594082615  0.4980863404899268  0.6212059762195550
  0.8785213420026736  0.9876495924155460  0.5690206302941411
  0.5587328641619490  0.4270555652414748  0.5548048255667860
  0.8087328641619492  0.6770555652414748  0.5548048255667860
  0.3937222031353079  0.0883449620839838  0.4972790906132491
  0.3347430467563616  0.2916188171670944  0.5026194796413721
  0.5847430467563617  0.5416188171670943  0.5026194796413721
  0.9597430467563612  0.4166188171670941  0.5026194796413724
  0.4597430467563615  0.9166188171670943  0.5026194796413724
  0.8347430467563614  0.7916188171670941  0.5026194796413722
  0.2097430467563617  0.6666188171670940  0.5026194796413721
  0.0187222031353079  0.2133449620839836  0.4972790906132491
  0.7097430467563616  0.1666188171670944  0.5026194796413723
  0.7649545689156373  0.4810247899930229  0.4884036749140169
  0.0149545689156370  0.7310247899930229  0.4884036749140169
  0.3899545689156370  0.6060247899930229  0.4884036749140169
  0.8899545689156375  0.1060247899930229  0.4884036749140169
  0.2649545689156371  0.9810247899930228  0.4884036749140169
  0.6399545689156367  0.8560247899930228  0.4884036749140169
  0.1399545689156375  0.3560247899930229  0.4884036749140169
  0.0847430467563617  0.0416188171670944  0.5026194796413723
  0.5187222031353087  0.7133449620839836  0.4972790906132490
  0.1437222031353078  0.8383449620839837  0.4972790906132489
  0.7687222031353073  0.9633449620839837  0.4972790906132491
  0.1837328641619493  0.5520555652414748  0.5548048255667860
  0.6837328641619492  0.0520555652414750  0.5548048255667861
  0.0587328641619490  0.9270555652414747  0.5548048255667860
  0.4337328641619487  0.8020555652414746  0.5548048255667860
  0.9337328641619492  0.3020555652414747  0.5548048255667860
  0.3087328641619493  0.1770555652414748  0.5548048255667861
  0.4559744150602777  0.4342988977652417  0.4937440461381410
  0.7059744150602777  0.6842988977652418  0.4937440461381410
  0.0809744150602779  0.5592988977652416  0.4937440461381412
  0.5809744150602778  0.0592988977652418  0.4937440461381412
  0.9559744150602779  0.9342988977652416  0.4937440461381412
  0.3309744150602773  0.8092988977652417  0.4937440461381413
  0.8309744150602779  0.3092988977652416  0.4937440461381412
  0.2059744150602770  0.1842988977652418  0.4937440461381412
  0.6437222031353079  0.3383449620839836  0.4972790906132492
  0.8937222031353081  0.5883449620839837  0.4972790906132493
  0.2687222031353079  0.4633449620839837  0.4972790906132492
  0.1722996372489860  0.4336803676639980  0.6354217809469105
  0.9222996372489860  0.1836803676639980  0.6354217809469104
  0.5149545689156372  0.2310247899930229  0.4884036749140169
  0.6062787936279327  0.1054065125808875  0.6300813919187871
  0.9812787936279324  0.9804065125808874  0.6300813919187870
  0.8848562277416100  0.9507419181609018  0.7682240822524485
  0.2598562277416102  0.8257419181609017  0.7682240822524484
  0.9400677499008859  0.2651478909868306  0.7540082775250930
  0.1900677499008857  0.5151478909868306  0.7540082775250930
  0.5650677499008858  0.3901478909868306  0.7540082775250930
  0.0650677499008859  0.8901478909868304  0.7540082775250930
  0.0098562277416103  0.5757419181609018  0.7682240822524484
  0.4400677499008859  0.7651478909868304  0.7540082775250930
  0.3150677499008862  0.1401478909868306  0.7540082775250929
  0.6900677499008860  0.0151478909868306  0.7540082775250930
  0.8373093007992135  0.2723912235105974  0.6929474980964485
  0.0873093007992138  0.5223912235105974  0.6929474980964485
  0.4623093007992141  0.3973912235105972  0.6929474980964485
  0.9623093007992141  0.8973912235105973  0.6929474980964484
  0.3373093007992143  0.7723912235105973  0.6929474980964485
  0.8150677499008860  0.6401478909868304  0.7540082775250930
  0.7123093007992142  0.6473912235105974  0.6929474980964485
  0.6348562277416100  0.7007419181609019  0.7682240822524484
  0.7598562277416098  0.3257419181609019  0.7682240822524484
  0.8810875960455261  0.4684219987590493  0.7593486487492171
  0.2560875960455262  0.3434219987590491  0.7593486487492174
  0.7560875960455263  0.8434219987590492  0.7593486487492171
  0.1310875960455263  0.7184219987590492  0.7593486487492175
  0.5060875960455263  0.5934219987590493  0.7593486487492175
  0.0060875960455265  0.0934219987590490  0.7593486487492174
  0.3810875960455261  0.9684219987590491  0.7593486487492171
  0.1348562277416101  0.2007419181609018  0.7682240822524484
  0.8188353841205567  0.1224680630777913  0.7628836932243250
  0.4438353841205568  0.2474680630777913  0.7628836932243250
  0.9438353841205566  0.7474680630777913  0.7628836932243250
  0.3188353841205568  0.6224680630777912  0.7628836932243250
  0.6938353841205569  0.4974680630777913  0.7628836932243255
  0.1938353841205571  0.9974680630777911  0.7628836932243255
  0.5688353841205568  0.8724680630777912  0.7628836932243250
  0.5098562277416100  0.0757419181609016  0.7682240822524484
  0.0688353841205569  0.3724680630777913  0.7628836932243250
  0.2123093007992141  0.1473912235105974  0.6929474980964485
  0.3848562277416101  0.4507419181609018  0.7682240822524484
  0.0250570888742446  0.1764372878293393  0.6964825425715564
  0.5212894546545737  0.1941171157383787  0.6876071268723241
  0.8962894546545734  0.0691171157383786  0.6876071268723241
  0.0435310055529022  0.3263604482621455  0.6265463474436793
  0.2935310055529015  0.5763604482621455  0.6265463474436792
  0.6685310055529018  0.4513604482621453  0.6265463474436792
  0.1685310055529017  0.9513604482621454  0.6265463474436792
  0.5435310055529022  0.8263604482621453  0.6265463474436792
  0.0212894546545737  0.6941171157383785  0.6876071268723241
  0.9185310055529018  0.7013604482621455  0.6265463474436790
  0.7935310055529017  0.0763604482621454  0.6265463474436792
  0.2312787936279324  0.2304065125808874  0.6300813919187873
  0.4812787936279326  0.4804065125808874  0.6300813919187871
  0.8562787936279325  0.3554065125808875  0.6300813919187873
  0.3562787936279324  0.8554065125808874  0.6300813919187871
  0.7312787936279325  0.7304065125808873  0.6300813919187872
  0.5873093007992137  0.0223912235105975  0.6929474980964485
  0.4185310055529020  0.2013604482621457  0.6265463474436793
  0.6462894546545735  0.8191171157383786  0.6876071268723241
  0.1062787936279324  0.6054065125808874  0.6300813919187871
  0.7712894546545735  0.4441171157383788  0.6876071268723241
  0.2712894546545736  0.9441171157383785  0.6876071268723241
  0.6500570888742447  0.3014372878293395  0.6964825425715564
  0.1500570888742444  0.8014372878293393  0.6964825425715562
  0.5250570888742443  0.6764372878293392  0.6964825425715562
  0.9000570888742445  0.5514372878293393  0.6964825425715562
  0.4000570888742447  0.0514372878293393  0.6964825425715564
  0.7750570888742440  0.9264372878293393  0.6964825425715562
  0.7160779324952979  0.1297111429124501  0.7018229315996796
  0.2750570888742446  0.4264372878293394  0.6964825425715564
  0.3410779324952978  0.2547111429124498  0.7018229315996796
  0.8410779324952978  0.7547111429124500  0.7018229315996796
  0.2160779324952980  0.6297111429124499  0.7018229315996796
  0.5910779324952981  0.5047111429124498  0.7018229315996796
  0.0910779324952980  0.0047111429124501  0.7018229315996795
  0.4660779324952977  0.8797111429124498  0.7018229315996796
  0.1462894546545739  0.3191171157383786  0.6876071268723241
  0.9660779324952975  0.3797111429124500  0.7018229315996796
  0.3962894546545738  0.5691171157383786  0.6876071268723241
  0.9874545027188886  0.9567625165381675  0.5880314379524578
  0.6124545027188889  0.0817625165381675  0.5880314379524578
  0.1124545027188886  0.5817625165381676  0.5880314379524579
  0.7374545027188886  0.7067625165381676  0.5880314379524577
  0.3624545027188887  0.8317625165381677  0.5880314379524577
  0.8624545027188887  0.3317625165381676  0.5880314379524577
  0.4874545027188888  0.4567625165381676  0.5880314379524577
  0.0357891579506898  0.7057925852718436  0.5665150659133550
  0.9107891579506890  0.0807925852718437  0.5665150659133550
  0.5357891579506898  0.2057925852718437  0.5665150659133551
  0.6607891579506898  0.8307925852718434  0.5665150659133548
  0.2857891579506898  0.9557925852718437  0.5665150659133548
  0.7857891579506894  0.4557925852718434  0.5665150659133550
  0.4107891579506895  0.5807925852718436  0.5665150659133550
  0.4497989140956819  0.4579422988188949  0.5357940140151073
  0.2374545027188888  0.2067625165381675  0.5880314379524578
  0.6997989140956821  0.7079422988188947  0.5357940140151071
  0.5278565654622754  0.8182092272928495  0.5800043681061562
  0.5747989140956823  0.0829422988188951  0.5357940140151074
  0.7843969004354509  0.9714961400111294  0.5438212707115400
  0.4093969004354507  0.0964961400111295  0.5438212707115403
  0.9093969004354509  0.5964961400111294  0.5438212707115402
  0.5343969004354511  0.7214961400111295  0.5438212707115402
  0.2843969004354505  0.4714961400111295  0.5438212707115404
  0.1528565654622758  0.9432092272928494  0.5800043681061560
  0.7778565654622758  0.0682092272928495  0.5800043681061563
  0.0747989140956816  0.5829422988188947  0.5357940140151074
  0.2778565654622758  0.5682092272928495  0.5800043681061561
  0.0278565654622754  0.3182092272928494  0.5800043681061563
  0.6528565654622758  0.4432092272928494  0.5800043681061563
  0.4028565654622757  0.1932092272928495  0.5800043681061561
  0.1997989140956820  0.2079422988188949  0.5357940140151074
  0.8247989140956820  0.3329422988188950  0.5357940140151073
  0.3247989140956824  0.8329422988188949  0.5357940140151073
  0.9497989140956825  0.9579422988188949  0.5357940140151071
  0.9028565654622758  0.6932092272928494  0.5800043681061557
  0.1607891579506895  0.3307925852718436  0.5665150659133551
  0.4466348607085877  0.3892400025413012  0.6464055187589253
  0.9014639848116001  0.2089129457256758  0.5573106671825037
  0.1618844353230222  0.3249458250564375  0.6423701740484818
  0.8281751956817630  0.1675269152595814  0.6102224213643093
  0.4531751956817628  0.2925269152595814  0.6102224213643095
  0.9531751956817631  0.7925269152595814  0.6102224213643092
  0.5781751956817635  0.9175269152595813  0.6102224213643093
  0.2031751956817630  0.0425269152595814  0.6102224213643094
  0.7031751956817629  0.5425269152595812  0.6102224213643093
  0.4118844353230224  0.5749458250564375  0.6423701740484818
  0.3281751956817628  0.6675269152595813  0.6102224213643093
  0.9466348607085875  0.8892400025413013  0.6464055187589252
  0.5716348607085878  0.0142400025413015  0.6464055187589254
  0.0716348607085878  0.5142400025413013  0.6464055187589253
  0.6966348607085880  0.6392400025413013  0.6464055187589253
  0.3216348607085877  0.7642400025413013  0.6464055187589253
  0.8216348607085878  0.2642400025413014  0.6464055187589253
  0.1593969004354513  0.8464961400111296  0.5438212707115402
  0.0781751956817629  0.4175269152595814  0.6102224213643095
  0.7868844353230225  0.4499458250564377  0.6423701740484818
  0.2868844353230223  0.9499458250564374  0.6423701740484818
  0.6618844353230227  0.8249458250564374  0.6423701740484817
  0.4014639848116006  0.7089129457256760  0.5573106671825035
  0.0264639848116007  0.8339129457256760  0.5573106671825037
  0.6514639848116007  0.9589129457256760  0.5573106671825033
  0.1514639848116009  0.4589129457256762  0.5573106671825037
  0.7764639848116007  0.5839129457256760  0.5573106671825038
  0.5264639848116002  0.3339129457256759  0.5573106671825038
  0.8629257516600733  0.9818211218027589  0.6142578996159882
  0.4879257516600733  0.1068211218027593  0.6142578996159885
  0.9879257516600730  0.6068211218027592  0.6142578996159882
  0.6129257516600735  0.7318211218027590  0.6142578996159884
  0.2379257516600735  0.8568211218027590  0.6142578996159884
  0.7379257516600731  0.3568211218027589  0.6142578996159885
  0.3629257516600733  0.4818211218027590  0.6142578996159885
  0.1129257516600731  0.2318211218027591  0.6142578996159885
  0.9118844353230224  0.0749458250564375  0.6423701740484818
  0.5368844353230228  0.1999458250564375  0.6423701740484818
  0.0368844353230223  0.6999458250564374  0.6423701740484818
  0.2764639848116006  0.0839129457256763  0.5573106671825037
  0.6593969004354509  0.3464961400111295  0.5438212707115403
  0.8186762074725761  0.1357317412897155  0.5216302872996890
  0.3681061400767103  0.3789150498079856  0.5759690233957128
  0.1156186051891390  0.6504653647626776  0.4774201200587711
  0.7406186051891387  0.7754653647626775  0.4774201200587713
  0.4906186051891389  0.5254653647626777  0.4774201200587713
  0.3590782702159637  0.9971784520443975  0.5136032174533871
  0.9840782702159637  0.1221784520443976  0.5136032174533872
  0.4840782702159634  0.6221784520443975  0.5136032174533871
  0.1090782702159635  0.7471784520443976  0.5136032174533870
  0.6156186051891388  0.1504653647626777  0.4774201200587710
  0.7340782702159632  0.8721784520443976  0.5136032174533871
  0.8590782702159637  0.4971784520443974  0.5136032174533871
  0.6090782702159632  0.2471784520443974  0.5136032174533870
  0.4060206188493699  0.2619115235704428  0.4693928633623382
  0.0310206188493692  0.3869115235704430  0.4693928633623383
  0.5310206188493697  0.8869115235704429  0.4693928633623383
  0.1560206188493692  0.0119115235704433  0.4693928633623383
  0.7810206188493704  0.1369115235704433  0.4693928633623382
  0.2340782702159634  0.3721784520443976  0.5136032174533870
  0.2810206188493692  0.6369115235704429  0.4693928633623382
  0.9906186051891389  0.0254653647626777  0.4774201200587713
  0.8656186051891387  0.4004653647626776  0.4774201200587713
  0.1966348607085877  0.1392400025413013  0.6464055187589252
  0.4003691611674486  0.7147595713058553  0.4814555983104504
  0.0253691611674490  0.8397595713058551  0.4814555983104504
  0.6503691611674495  0.9647595713058552  0.4814555983104502
  0.1503691611674486  0.4647595713058552  0.4814555983104504
  0.7753691611674490  0.5897595713058552  0.4814555983104504
  0.5253691611674490  0.3397595713058554  0.4814555983104504
  0.3656186051891388  0.9004653647626776  0.4774201200587712
  0.3243278448303985  0.1828842745595338  0.5095678727429438
  0.4493278448303986  0.8078842745595338  0.5095678727429437
  0.0743278448303986  0.9328842745595337  0.5095678727429436
  0.6993278448303984  0.0578842745595339  0.5095678727429438
  0.1993278448303988  0.5578842745595339  0.5095678727429437
  0.8243278448303983  0.6828842745595338  0.5095678727429437
  0.5743278448303986  0.4328842745595337  0.5095678727429437
  0.2406186051891390  0.2754653647626773  0.4774201200587713
  0.9493278448303987  0.3078842745595334  0.5095678727429438
  0.9060206188493697  0.7619115235704427  0.4693928633623381
  0.6560206188493695  0.5119115235704429  0.4693928633623382
  0.1936762074725768  0.0107317412897159  0.5216302872996885
  0.7326856895652883  0.3878821704772241  0.4909095165297346
  0.0691474564137613  0.0357903465543073  0.5478567489632196
  0.6941474564137615  0.1607903465543075  0.5478567489632192
  0.1941474564137611  0.6607903465543072  0.5478567489632195
  0.8191474564137610  0.7857903465543071  0.5478567489632196
  0.4441474564137614  0.9107903465543071  0.5478567489632195
  0.9441474564137611  0.4107903465543071  0.5478567489632195
  0.9826856895652881  0.6378821704772241  0.4909095165297346
  0.5691474564137611  0.5357903465543071  0.5478567489632195
  0.1181061400767108  0.1289150498079859  0.5759690233957129
  0.7431061400767101  0.2539150498079855  0.5759690233957128
  0.2431061400767101  0.7539150498079856  0.5759690233957128
  0.8681061400767098  0.8789150498079854  0.5759690233957125
  0.4931061400767105  0.0039150498079857  0.5759690233957127
  0.9931061400767104  0.5039150498079857  0.5759690233957128
  0.6181061400767108  0.6289150498079857  0.5759690233957125
  0.3191474564137610  0.2857903465543072  0.5478567489632195
  0.3576856895652886  0.5128821704772243  0.4909095165297346
  0.8576856895652883  0.0128821704772242  0.4909095165297346
  0.2326856895652878  0.8878821704772240  0.4909095165297346
  0.3186762074725763  0.6357317412897157  0.5216302872996889
  0.9436762074725761  0.7607317412897154  0.5216302872996886
  0.5686762074725770  0.8857317412897157  0.5216302872996886
  0.0686762074725762  0.3857317412897155  0.5216302872996887
  0.6936762074725764  0.5107317412897158  0.5216302872996887
  0.4436762074725767  0.2607317412897157  0.5216302872996887
  0.1170108627043767  0.1347618100233917  0.5001139152605860
  0.7420108627043775  0.2597618100233919  0.5001139152605860
  0.2420108627043778  0.7597618100233917  0.5001139152605859
  0.8670108627043773  0.8847618100233915  0.5001139152605857
  0.4920108627043778  0.0097618100233917  0.5001139152605858
  0.9920108627043779  0.5097618100233915  0.5001139152605859
  0.6170108627043778  0.6347618100233917  0.5001139152605859
  0.3670108627043776  0.3847618100233918  0.5001139152605858
  0.4826856895652880  0.1378821704772242  0.4909095165297346
  0.1076856895652883  0.2628821704772240  0.4909095165297348
  0.6076856895652881  0.7628821704772240  0.4909095165297347
  0.0343969004354514  0.2214961400111295  0.5438212707115403
  0.9935772093419942  0.1539730740673469  0.6021951646678761
  0.4983457484433140  0.9728541357687472  0.6993173672188929
  0.1185772093419942  0.7789730740673468  0.6021951646678761
  0.4994410258156469  0.9670073755533415  0.7751724753540200
  0.1244410258156470  0.0920073755533413  0.7751724753540199
  0.6244410258156466  0.5920073755533413  0.7751724753540200
  0.2494410258156468  0.7170073755533413  0.7751724753540200
  0.8744410258156466  0.8420073755533414  0.7751724753540199
  0.3744410258156470  0.3420073755533413  0.7751724753540199
  0.9994410258156469  0.4670073755533414  0.7751724753540199
  0.7004823421526976  0.1238826722996630  0.7470602009215266
  0.7494410258156468  0.2170073755533413  0.7751724753540200
  0.0407317861743875  0.1845884657564852  0.7430247226698473
  0.5407317861743871  0.6845884657564851  0.7430247226698474
  0.1657317861743875  0.8095884657564852  0.7430247226698474
  0.7907317861743870  0.9345884657564852  0.7430247226698474
  0.2907317861743873  0.4345884657564850  0.7430247226698476
  0.9157317861743868  0.5595884657564850  0.7430247226698474
  0.6657317861743871  0.3095884657564852  0.7430247226698474
  0.4157317861743875  0.0595884657564852  0.7430247226698473
  0.5341914512012116  0.7813015530382050  0.7792078200644632
  0.9504823421526972  0.3738826722996629  0.7470602009215266
  0.8254823421526976  0.7488826722996629  0.7470602009215266
  0.8733457484433140  0.8478541357687475  0.6993173672188929
  0.3733457484433139  0.3478541357687472  0.6993173672188933
  0.9983457484433140  0.4728541357687474  0.6993173672188933
  0.7483457484433140  0.2228541357687474  0.6993173672188933
  0.8640205753042244  0.9759744962225799  0.6901129684880420
  0.4890205753042245  0.1009744962225799  0.6901129684880418
  0.9890205753042246  0.6009744962225797  0.6901129684880418
  0.3254823421526978  0.2488826722996628  0.7470602009215266
  0.6140205753042243  0.7259744962225798  0.6901129684880418
  0.7390205753042243  0.3509744962225799  0.6901129684880418
  0.3640205753042248  0.4759744962225798  0.6901129684880418
  0.1140205753042248  0.2259744962225798  0.6901129684880418
  0.4504823421526974  0.8738826722996628  0.7470602009215267
  0.0754823421526981  0.9988826722996631  0.7470602009215266
  0.5754823421526974  0.4988826722996630  0.7470602009215266
  0.2004823421526978  0.6238826722996629  0.7470602009215266
  0.2390205753042245  0.8509744962225798  0.6901129684880418
  0.2483457484433141  0.7228541357687472  0.6993173672188933
  0.1591914512012118  0.9063015530382050  0.7792078200644632
  0.2841914512012120  0.5313015530382051  0.7792078200644634
  0.2921240436896262  0.9188849110171992  0.7657185178716622
  0.9171240436896257  0.0438849110171995  0.7657185178716621
  0.4171240436896264  0.5438849110171993  0.7657185178716621
  0.0421240436896262  0.6688849110171992  0.7657185178716621
  0.6671240436896261  0.7938849110171994  0.7657185178716621
  0.1671240436896262  0.2938849110171991  0.7657185178716621
  0.7921240436896260  0.4188849110171993  0.7657185178716621
  0.6187893884578247  0.0448548422835234  0.7872348899107648
  0.5421240436896261  0.1688849110171993  0.7657185178716621
  0.2827988705505367  0.0470052714710317  0.7565141191408107
  0.7827988705505367  0.5470052714710316  0.7565141191408108
  0.4077988705505363  0.6720052714710317  0.7565141191408107
  0.0327988705505367  0.7970052714710318  0.7565141191408107
  0.5327988705505368  0.2970052714710318  0.7565141191408107
  0.1577988705505366  0.4220052714710317  0.7565141191408107
  0.9077988705505368  0.1720052714710317  0.7565141191408107
  0.6577988705505368  0.9220052714710318  0.7565141191408108
  0.6591914512012115  0.4063015530382051  0.7792078200644632
  0.8687893884578254  0.2948548422835234  0.7872348899107650
  0.7437893884578254  0.6698548422835234  0.7872348899107650
  0.9091914512012118  0.6563015530382050  0.7792078200644632
  0.4091914512012119  0.1563015530382051  0.7792078200644634
  0.0341914512012119  0.2813015530382050  0.7792078200644634
  0.7841914512012114  0.0313015530382051  0.7792078200644634
  0.5811337998346184  0.0460346245642507  0.7349974659734142
  0.2061337998346187  0.1710346245642506  0.7349974659734142
  0.7061337998346188  0.6710346245642507  0.7349974659734143
  0.2437893884578252  0.1698548422835233  0.7872348899107648
  0.3311337998346189  0.7960346245642507  0.7349974659734143
  0.4561337998346184  0.4210346245642504  0.7349974659734143
  0.0811337998346185  0.5460346245642504  0.7349974659734142
  0.8311337998346184  0.2960346245642506  0.7349974659734143
  0.3687893884578250  0.7948548422835233  0.7872348899107650
  0.9937893884578253  0.9198548422835233  0.7872348899107650
  0.4937893884578253  0.4198548422835234  0.7872348899107650
  0.1187893884578254  0.5448548422835233  0.7872348899107648
  0.9561337998346184  0.9210346245642506  0.7349974659734143
  0.6233457484433144  0.5978541357687472  0.6993173672188931
  0.1233457484433143  0.0978541357687475  0.6993173672188933
  0.9003691611674490  0.2147595713058555  0.4814555983104504
  0.9545674531970019  0.2768233605202955  0.6329162165661241
  0.0702422800579126  0.0299437209741281  0.6237118178352727
  0.6952422800579127  0.1549437209741278  0.6237118178352726
  0.1952422800579131  0.6549437209741279  0.6237118178352726
  0.8202422800579128  0.7799437209741279  0.6237118178352724
  0.4452422800579125  0.9049437209741279  0.6237118178352729
  0.9452422800579123  0.4049437209741280  0.6237118178352729
  0.2045674531970019  0.5268233605202955  0.6329162165661241
  0.5702422800579127  0.5299437209741279  0.6237118178352729
  0.6567040469063857  0.9278518970512111  0.6806590502687573
  0.2817040469063855  0.0528518970512111  0.6806590502687576
  0.7817040469063851  0.5528518970512110  0.6806590502687577
  0.4067040469063851  0.6778518970512110  0.6806590502687575
  0.0317040469063857  0.8028518970512111  0.6806590502687573
  0.5317040469063852  0.3028518970512110  0.6806590502687575
  0.1567040469063854  0.4278518970512110  0.6806590502687576
  0.3202422800579126  0.2799437209741280  0.6237118178352730
  0.9067040469063848  0.1778518970512111  0.6806590502687577
  0.5795674531970020  0.4018233605202953  0.6329162165661241
  0.4545674531970024  0.7768233605202954  0.6329162165661238
  0.7435772093419943  0.9039730740673468  0.6021951646678763
  0.3685772093419939  0.0289730740673469  0.6021951646678765
  0.8685772093419941  0.5289730740673466  0.6021951646678764
  0.4935772093419939  0.6539730740673466  0.6021951646678761
  0.2435772093419940  0.4039730740673467  0.6021951646678764
  0.7812327979652010  0.9027932917866196  0.6544325886052269
  0.4062327979652008  0.0277932917866195  0.6544325886052268
  0.0795674531970019  0.9018233605202954  0.6329162165661241
  0.9062327979652010  0.5277932917866196  0.6544325886052268
  0.1562327979652007  0.7777932917866196  0.6544325886052268
  0.6562327979652005  0.2777932917866194  0.6544325886052268
  0.2812327979652008  0.4027932917866195  0.6544325886052268
  0.0312327979652010  0.1527932917866195  0.6544325886052268
  0.7045674531970019  0.0268233605202955  0.6329162165661241
  0.3295674531970022  0.1518233605202957  0.6329162165661238
  0.8295674531970020  0.6518233605202954  0.6329162165661241
  0.5312327979652006  0.6527932917866194  0.6544325886052268
  0.7056627305693350  0.0209766003048895  0.7087713247012506
  0.3306627305693351  0.1459766003048893  0.7087713247012510
  0.8306627305693347  0.6459766003048896  0.7087713247012507
  0.7873555045883061  0.1000038493157987  0.6685963153206452
  0.4123555045883062  0.2250038493157986  0.6685963153206452
  0.9123555045883064  0.7250038493157988  0.6685963153206449
  0.5373555045883069  0.8500038493157988  0.6685963153206451
  0.1623555045883065  0.9750038493157986  0.6685963153206451
  0.6623555045883063  0.4750038493157985  0.6685963153206452
  0.2873555045883063  0.6000038493157985  0.6685963153206452
  0.9904131559549002  0.0852707777897531  0.7128066694116942
  0.0373555045883063  0.3500038493157987  0.6685963153206452
  0.2000110932115132  0.9738240670350714  0.7208337392579960
  0.7000110932115130  0.4738240670350714  0.7208337392579960
  0.3250110932115131  0.5988240670350714  0.7208337392579960
  0.9500110932115133  0.7238240670350715  0.7208337392579960
  0.4500110932115124  0.2238240670350713  0.7208337392579960
  0.0750110932115132  0.3488240670350714  0.7208337392579960
  0.8250110932115130  0.0988240670350716  0.7208337392579960
  0.5750110932115131  0.8488240670350713  0.7208337392579960
  0.2404131559548999  0.3352707777897531  0.7128066694116942
  0.6154131559548999  0.2102707777897533  0.7128066694116942
  0.1154131559548999  0.7102707777897532  0.7128066694116942
  0.4556627305693347  0.7709766003048893  0.7087713247012510
  0.0806627305693349  0.8959766003048895  0.7087713247012507
  0.5806627305693348  0.3959766003048895  0.7087713247012510
  0.2056627305693348  0.5209766003048895  0.7087713247012510
  0.9556627305693346  0.2709766003048895  0.7087713247012510
  0.6219534909280756  0.1135576905080334  0.6766235720170781
  0.2469534909280753  0.2385576905080333  0.6766235720170783
  0.7469534909280751  0.7385576905080332  0.6766235720170786
  0.3719534909280753  0.8635576905080334  0.6766235720170783
  0.9969534909280756  0.9885576905080333  0.6766235720170780
  0.4969534909280751  0.4885576905080330  0.6766235720170783
  0.1219534909280751  0.6135576905080332  0.6766235720170783
  0.8719534909280753  0.3635576905080333  0.6766235720170786
  0.7404131559548998  0.8352707777897530  0.7128066694116945
  0.3654131559548999  0.9602707777897531  0.7128066694116942
  0.8654131559548999  0.4602707777897533  0.7128066694116942
  0.4904131559548999  0.5852707777897531  0.7128066694116946
  0.6185772093419938  0.2789730740673468  0.6021951646678764
  0.2753691611674489  0.0897595713058553  0.4814555983104505
