810
Lattice="17.43775251573436 0.0 1.1e-15 3.4875505031468674 19.181527767307795 1.2e-15 0.0 0.0 46.907058570379675" Properties=species:S:1:pos:R:3:move_mask:L:1 pbc="T T T"
Sr      13.95022428      15.69396844      11.96943225  F
Sr      12.20644903      19.18151895      11.96943225  F
Sr      12.20644903      10.46264269      11.96943225  F
Sr      10.46267377      13.95019319      11.96943225  F
Sr       8.71889852      17.43774370      11.96943225  F
Sr      10.46267377       5.23131693      11.96943225  F
Sr       8.71889852       8.71886744      11.96943225  F
Sr       6.97512327      12.20641794      11.96943225  F
Sr       5.23134802      15.69396844      11.96943225  F
Sr       3.48757277      19.18151895      11.96943225  F
Sr       6.97512327       3.48754168      11.96943225  F
Sr       5.23134802       6.97509219      11.96943225  F
Sr       3.48757277      10.46264269      11.96943225  F
Sr      19.18155003      13.95019319      11.96943225  F
Sr      17.43777478      17.43774370      11.96943225  F
Sr       3.48757277       1.74376643      11.96943225  F
Sr       1.74379752       5.23131693      11.96943225  F
Sr      17.43777478       8.71886744      11.96943225  F
Sr      15.69399953      12.20641794      11.96943225  F
Sr      15.69399953       3.48754168      11.96943225  F
Sr      13.95022428       6.97509219      11.96943225  F
Sr      12.20644903       1.74376643      11.96943225  F
Sr      13.95022428      15.69396844      15.86863225  T
Sr      12.20644903      19.18151895      15.86863225  T
Sr      12.20644903      10.46264269      15.86863225  T
Sr      10.46267377      13.95019319      15.86863225  T
Sr       8.71889852      17.43774370      15.86863225  T
Sr      10.46267377       5.23131693      15.86863225  T
Sr       8.71889852       8.71886744      15.86863225  T
Sr       6.97512327      12.20641794      15.86863225  T
Sr       5.23134802      15.69396844      15.86863225  T
Sr       3.48757277      19.18151895      15.86863225  T
Sr       6.97512327       3.48754168      15.86863225  T
Sr       5.23134802       6.97509219      15.86863225  T
Sr       3.48757277      10.46264269      15.86863225  T
Sr      19.18155003      13.95019319      15.86863225  T
Sr      17.43777478      17.43774370      15.86863225  T
Sr       3.48757277       1.74376643      15.86863225  T
Sr       1.74379752       5.23131693      15.86863225  T
Sr      17.43777478       8.71886744      15.86863225  T
Sr      15.69399953      12.20641794      15.86863225  T
Sr      15.69399953       3.48754168      15.86863225  T
Sr      13.95022428       6.97509219      15.86863225  T
Sr      12.20644903       1.74376643      15.86863225  T
Sr      13.95022428      15.69396844      19.76783225  T
Sr      12.20644903      19.18151895      19.76783225  T
Sr      12.20644903      10.46264269      19.76783225  T
Sr      10.46267377      13.95019319      19.76783225  T
Sr       8.71889852      17.43774370      19.76783225  T
Sr      10.46267377       5.23131693      19.76783225  T
Sr       8.71889852       8.71886744      19.76783225  T
Sr       6.97512327      12.20641794      19.76783225  T
Sr       5.23134802      15.69396844      19.76783225  T
Sr       3.48757277      19.18151895      19.76783225  T
Sr       6.97512327       3.48754168      19.76783225  T
Sr       5.23134802       6.97509219      19.76783225  T
Sr       3.48757277      10.46264269      19.76783225  T
Sr      19.18155003      13.95019319      19.76783225  T
Sr      17.43777478      17.43774370      19.76783225  T
Sr       3.48757277       1.74376643      19.76783225  T
Sr       1.74379752       5.23131693      19.76783225  T
Sr      17.43777478       8.71886744      19.76783225  T
Sr      15.69399953      12.20641794      19.76783225  T
Sr      15.69399953       3.48754168      19.76783225  T
Sr      13.95022428       6.97509219      19.76783225  T
Sr      12.20644903       1.74376643      19.76783225  T
Hf      11.76650707       4.18966763      35.61881154  T
Hf      16.99783282       8.98504958      35.61881154  T
Hf       5.66329369       6.58735861      35.61881154  T
Hf      16.12594520      16.17812249      35.61881154  T
Hf       4.79140606      13.78043152      35.61881154  T
Hf      10.89461944      11.38274055      35.61881154  T
Hf       0.43196793       1.79197666      35.61881154  T
Hf      10.02273182      18.57581346      35.61881154  T
Hf      14.70576233       2.34912455      35.78463008  T
Hf       2.49933557       7.14450649      35.78463008  T
Hf       8.60254895       4.74681552      35.78463008  T
Hf      19.06520046      14.33757941      35.78463008  T
Hf       7.73066133      11.93988844      35.78463008  T
Hf      13.83387471       9.54219747      35.78463008  T
Hf       6.85877370      19.13296135      35.78463008  T
Hf      12.96198708      16.73527038      35.78463008  T
Hf       9.15490048       1.45284571      36.03513202  T
Hf      14.38622624       6.24822765      36.03513202  T
Hf       3.05168710       3.85053668      36.03513202  T
Hf      13.51433861      13.44130056      36.03513202  T
Hf       2.17979948      11.04360959      36.03513202  T
Hf       8.28301286       8.64591862      36.03513202  T
Hf      18.74566437      18.23668250      36.03513202  T
Hf       7.41112523      15.83899153      36.03513202  T
Hf      17.31738543       5.08594163      35.36831044  T
Hf       5.11095867       9.88132358      35.36831044  T
Hf      11.21417205       7.48363260      35.36831044  T
Hf       4.23907104      17.07439649      35.36831044  T
Hf      10.34228443      14.67670552      35.36831044  T
Hf      16.44549781      12.27901455      35.36831044  T
Hf       5.98284630       2.68825066      35.36831044  T
Hf      12.08605968       0.29055969      35.36831044  T
Hf      15.55077052       5.22487982      32.50412888  T
Hf       3.34434375      10.02026176      32.50412888  T
Hf       9.44755713       7.62257079      32.50412888  T
Hf      19.91020864      17.21333467      32.50412888  T
Hf       8.57566951      14.81564370      32.50412888  T
Hf      14.67888289      12.41795273      32.50412888  T
Hf       4.21623138       2.82718885      32.50412888  T
Hf      10.31944476       0.42949788      32.50412888  T
Hf       1.05227327       3.38433674      32.66994742  T
Hf       6.28359902       8.17971868      32.66994742  T
Hf      12.38681240       5.78202771      32.66994742  T
Hf       5.41171140      15.37279159      32.66994742  T
Hf      11.51492478      12.97510062      32.66994742  T
Hf      17.61813816      10.57740965      32.66994742  T
Hf       7.15548665       0.98664576      32.66994742  T
Hf      16.74625053      17.77048256      32.66994742  T
Hf      12.93916393       2.48805789      32.92044936  T
Hf      18.17048969       7.28343983      32.92044936  T
Hf       6.83595055       4.88574886      32.92044936  T
Hf      17.29860206      14.47651274      32.92044936  T
Hf       5.96406292      12.07882177      32.92044936  T
Hf      12.06727630       9.68113080      32.92044936  T
Hf       1.60462480       0.09036692      32.92044936  T
Hf      11.19538868      16.87420371      32.92044936  T
Hf       3.66389636       6.12115382      32.25362777  T
Hf       8.89522212      10.91653576      32.25362777  T
Hf      14.99843550       8.51884479      32.25362777  T
Hf       8.02333449      18.10960867      32.25362777  T
Hf      14.12654787      15.71191770      32.25362777  T
Hf       2.79200874      13.31422673      32.25362777  T
Hf       9.76710974       3.72346285      32.25362777  T
Hf      15.87032312       1.32577187      32.25362777  T
Hf       1.89728145       6.26009200      29.38944622  T
Hf       7.12860720      11.05547394      29.38944622  T
Hf      13.23182058       8.65778297      29.38944622  T
Hf       6.25671958      18.24854686      29.38944622  T
Hf      12.35993296      15.85085588      29.38944622  T
Hf      18.46314634      13.45316491      29.38944622  T
Hf       8.00049483       3.86240103      29.38944622  T
Hf      14.10370821       1.46471006      29.38944622  T
Hf       4.83653671       4.41954892      29.55526475  T
Hf      10.06786247       9.21493086      29.55526475  T
Hf      16.17107585       6.81723989      29.55526475  T
Hf       9.19597484      16.40800377      29.55526475  T
Hf      15.29918822      14.01031280      29.55526475  T
Hf       3.96464909      11.61262183      29.55526475  T
Hf      10.93975009       2.02185795      29.55526475  T
Hf      20.53051398      18.80569474      29.55526475  T
Hf      16.72342738       3.52327007      29.80576670  T
Hf       4.51700062       8.31865201      29.80576670  T
Hf      10.62021400       5.92096104      29.80576670  T
Hf       3.64511299      15.51172493      29.80576670  T
Hf       9.74832637      13.11403396      29.80576670  T
Hf      15.85153975      10.71634299      29.80576670  T
Hf       5.38888824       1.12557910      29.80576670  T
Hf      14.97965213      17.90941590      29.80576670  T
Hf       7.44815981       7.15636600      29.13894511  T
Hf      12.67948557      11.95174794      29.13894511  T
Hf      18.78269895       9.55405697      29.13894511  T
Hf      11.80759794      19.14482085      29.13894511  T
Hf      17.91081132      16.74712988      29.13894511  T
Hf       6.57627219      14.34943891      29.13894511  T
Hf      13.55137319       4.75867503      29.13894511  T
Hf       2.21683406       2.36098406      29.13894511  T
Hf       5.68154489       7.29530418      26.27476355  T
Hf      10.91287065      12.09068613      26.27476355  T
Hf      17.01608403       9.69299515      26.27476355  T
Hf       6.55343252       0.10223127      26.27476355  T
Hf      16.14419640      16.88606807      26.27476355  T
Hf       4.80965727      14.48837710      26.27476355  T
Hf      11.78475828       4.89761321      26.27476355  T
Hf      17.88797166       2.49992224      26.27476355  T
Hf       8.62080016       5.45476110      26.44058209  T
Hf      13.85212592      10.25014304      26.44058209  T
Hf       2.51758678       7.85245207      26.44058209  T
Hf      12.98023829      17.44321596      26.44058209  T
Hf      19.08345167      15.04552499      26.44058209  T
Hf       7.74891254      12.64783401      26.44058209  T
Hf      14.72401354       3.05707013      26.44058209  T
Hf       3.38947441       0.65937916      26.44058209  T
Hf       3.06993831       4.55848226      26.69108403  T
Hf       8.30126407       9.35386420      26.69108403  T
Hf      14.40447745       6.95617323      26.69108403  T
Hf       7.42937644      16.54693711      26.69108403  T
Hf      13.53258982      14.14924614      26.69108403  T
Hf       2.19805068      11.75155517      26.69108403  T
Hf       9.17315169       2.16079128      26.69108403  T
Hf      18.76391557      18.94462808      26.69108403  T
Hf      11.23242326       8.19157818      26.02426245  T
Hf      16.46374901      12.98696012      26.02426245  T
Hf       5.12920988      10.58926915      26.02426245  T
Hf      12.10431088       0.99850527      26.02426245  T
Hf       4.25732225      17.78234207      26.02426245  T
Hf      10.36053563      15.38465110      26.02426245  T
Hf      17.33563664       5.79388721      26.02426245  T
Hf       6.00109750       3.39619624      26.02426245  T
Hf       9.46580834       8.33051637      23.16008089  T
Hf      14.69713410      13.12589831      23.16008089  T
Hf       3.36259496      10.72820734      23.16008089  T
Hf      10.33769597       1.13744345      23.16008089  T
Hf      19.92845985      17.92128025      23.16008089  T
Hf       8.59392072      15.52358928      23.16008089  T
Hf      15.56902172       5.93282540      23.16008089  T
Hf       4.23448259       3.53513442      23.16008089  T
Hf      12.40506361       6.48997329      23.32589943  T
Hf      17.63638936      11.28535523      23.32589943  T
Hf       6.30185023       8.88766426      23.32589943  T
Hf      16.76450174      18.47842814      23.32589943  T
Hf       5.42996260      16.08073717      23.32589943  T
Hf      11.53317598      13.68304620      23.32589943  T
Hf       1.07052447       4.09228231      23.32589943  T
Hf       7.17373786       1.69459134      23.32589943  T
Hf       6.85420176       5.59369444      23.57640137  T
Hf      12.08552751      10.38907638      23.57640137  T
Hf      18.18874089       7.99138541      23.57640137  T
Hf      11.21363989      17.58214929      23.57640137  T
Hf      17.31685327      15.18445832      23.57640137  T
Hf       5.98231413      12.78676735      23.57640137  T
Hf      12.95741514       3.19600347      23.57640137  T
Hf       1.62287600       0.79831250      23.57640137  T
Hf      15.01668671       9.22679037      22.90957979  T
Hf       2.81025995      14.02217231      22.90957979  T
Hf       8.91347333      11.62448134      22.90957979  T
Hf      15.88857433       2.03371745      22.90957979  T
Hf       8.04158570      18.81755425      22.90957979  T
Hf      14.14479908      16.41986328      22.90957979  T
Hf       3.68214757       6.82909940      22.90957979  T
Hf       9.78536095       4.43140842      22.90957979  T
Ti      16.56590190      14.82207749      10.01981452  F
Ti      14.82212665      18.30962799      10.01981452  F
Ti      14.82212665       9.59075174      10.01981452  F
Ti      13.07835140      13.07830224      10.01981452  F
Ti      11.33457615      16.56585274      10.01981452  F
Ti      13.07835140       4.35942598      10.01981452  F
Ti      11.33457615       7.84697648      10.01981452  F
Ti       9.59080090      11.33452699      10.01981452  F
Ti       7.84702565      14.82207749      10.01981452  F
Ti       6.10325039      18.30962799      10.01981452  F
Ti       9.59080090       2.61565073      10.01981452  F
Ti       7.84702565       6.10320123      10.01981452  F
Ti       6.10325039       9.59075174      10.01981452  F
Ti       4.35947514      13.07830224      10.01981452  F
Ti      20.05345241      16.56585274      10.01981452  F
Ti       6.10325039       0.87187548      10.01981452  F
Ti       4.35947514       4.35942598      10.01981452  F
Ti       2.61569989       7.84697648      10.01981452  F
Ti      18.30967716      11.33452699      10.01981452  F
Ti       0.87192464       2.61565073      10.01981452  F
Ti      16.56590190       6.10320123      10.01981452  F
Ti      14.82212665       0.87187548      10.01981452  F
Ti      16.56590190      14.82207749      13.91901452  F
Ti      14.82212665      18.30962799      13.91901452  F
Ti      14.82212665       9.59075174      13.91901452  F
Ti      13.07835140      13.07830224      13.91901452  F
Ti      11.33457615      16.56585274      13.91901452  F
Ti      13.07835140       4.35942598      13.91901452  F
Ti      11.33457615       7.84697648      13.91901452  F
Ti       9.59080090      11.33452699      13.91901452  F
Ti       7.84702565      14.82207749      13.91901452  F
Ti       6.10325039      18.30962799      13.91901452  F
Ti       9.59080090       2.61565073      13.91901452  F
Ti       7.84702565       6.10320123      13.91901452  F
Ti       6.10325039       9.59075174      13.91901452  F
Ti       4.35947514      13.07830224      13.91901452  F
Ti      20.05345241      16.56585274      13.91901452  F
Ti       6.10325039       0.87187548      13.91901452  F
Ti       4.35947514       4.35942598      13.91901452  F
Ti       2.61569989       7.84697648      13.91901452  F
Ti      18.30967716      11.33452699      13.91901452  F
Ti       0.87192464       2.61565073      13.91901452  F
Ti      16.56590190       6.10320123      13.91901452  F
Ti      14.82212665       0.87187548      13.91901452  F
Ti      16.56590190      14.82207749      17.81821452  T
Ti      14.82212665      18.30962799      17.81821452  T
Ti      14.82212665       9.59075174      17.81821452  T
Ti      13.07835140      13.07830224      17.81821452  T
Ti      11.33457615      16.56585274      17.81821452  T
Ti      13.07835140       4.35942598      17.81821452  T
Ti      11.33457615       7.84697648      17.81821452  T
Ti       9.59080090      11.33452699      17.81821452  T
Ti       7.84702565      14.82207749      17.81821452  T
Ti       6.10325039      18.30962799      17.81821452  T
Ti       9.59080090       2.61565073      17.81821452  T
Ti       7.84702565       6.10320123      17.81821452  T
Ti       6.10325039       9.59075174      17.81821452  T
Ti       4.35947514      13.07830224      17.81821452  T
Ti      20.05345241      16.56585274      17.81821452  T
Ti       6.10325039       0.87187548      17.81821452  T
Ti       4.35947514       4.35942598      17.81821452  T
Ti       2.61569989       7.84697648      17.81821452  T
Ti      18.30967716      11.33452699      17.81821452  T
Ti       0.87192464       2.61565073      17.81821452  T
Ti      16.56590190       6.10320123      17.81821452  T
Ti      14.82212665       0.87187548      17.81821452  T
O       15.69400397      16.56585742      10.01982526  F
O       10.46267821       0.87188016      10.01982526  F
O       13.95022871      11.33453167      10.01982526  F
O       12.20645346      14.82208217      10.01982526  F
O       10.46267821      18.30963267      10.01982526  F
O       12.20645346       6.10320591      10.01982526  F
O       10.46267821       9.59075642      10.01982526  F
O        8.71890296      13.07830692      10.01982526  F
O        6.97512771      16.56585742      10.01982526  F
O        1.74380195       0.87188016      10.01982526  F
O        8.71890296       4.35943066      10.01982526  F
O        6.97512771       7.84698116      10.01982526  F
O        5.23135246      11.33453167      10.01982526  F
O        3.48757720      14.82208217      10.01982526  F
O       19.18155447      18.30963267      10.01982526  F
O        5.23135246       2.61565541      10.01982526  F
O        3.48757720       6.10320591      10.01982526  F
O        1.74380195       9.59075642      10.01982526  F
O       17.43777922      13.07830692      10.01982526  F
O       17.43777922       4.35943066      10.01982526  F
O       15.69400397       7.84698116      10.01982526  F
O       13.95022871       2.61565541      10.01982526  F
O       14.82211460      13.95018431      10.01982991  F
O       13.07833935      17.43773482      10.01982991  F
O       13.07833935       8.71885856      10.01982991  F
O       11.33456410      12.20640906      10.01982991  F
O        9.59078884      15.69395957      10.01982991  F
O       11.33456410       3.48753280      10.01982991  F
O        9.59078884       6.97508331      10.01982991  F
O        7.84701359      10.46263381      10.01982991  F
O        6.10323834      13.95018431      10.01982991  F
O        4.35946309      17.43773482      10.01982991  F
O        7.84701359       1.74375755      10.01982991  F
O        6.10323834       5.23130806      10.01982991  F
O        4.35946309       8.71885856      10.01982991  F
O        2.61568784      12.20640906      10.01982991  F
O       18.30966510      15.69395957      10.01982991  F
O        7.84701359      19.18151007      10.01982991  F
O        2.61568784       3.48753280      10.01982991  F
O       18.30966510       6.97508331      10.01982991  F
O       16.56588985      10.46263381      10.01982991  F
O       16.56588985       1.74375755      10.01982991  F
O       14.82211460       5.23130806      10.01982991  F
O       16.56588985      19.18151007      10.01982991  F
O       16.56589793      14.82207515      11.96943853  F
O       14.82212267      18.30962565      11.96943853  F
O       14.82212267       9.59074939      11.96943853  F
O       13.07834742      13.07829990      11.96943853  F
O       11.33457217      16.56585040      11.96943853  F
O       13.07834742       4.35942364      11.96943853  F
O       11.33457217       7.84697414      11.96943853  F
O        9.59079692      11.33452464      11.96943853  F
O        7.84702167      14.82207515      11.96943853  F
O        6.10324642      18.30962565      11.96943853  F
O        9.59079692       2.61564839      11.96943853  F
O        7.84702167       6.10319889      11.96943853  F
O        6.10324642       9.59074939      11.96943853  F
O        4.35947117      13.07829990      11.96943853  F
O       20.05344843      16.56585040      11.96943853  F
O        6.10324642       0.87187313      11.96943853  F
O        4.35947117       4.35942364      11.96943853  F
O        2.61569591       7.84697414      11.96943853  F
O       18.30967318      11.33452464      11.96943853  F
O        0.87192066       2.61564839      11.96943853  F
O       16.56589793       6.10319889      11.96943853  F
O       14.82212267       0.87187313      11.96943853  F
O       15.69400397      16.56585742      13.91902526  F
O       10.46267821       0.87188016      13.91902526  F
O       13.95022871      11.33453167      13.91902526  F
O       12.20645346      14.82208217      13.91902526  F
O       10.46267821      18.30963267      13.91902526  F
O       12.20645346       6.10320591      13.91902526  F
O       10.46267821       9.59075642      13.91902526  F
O        8.71890296      13.07830692      13.91902526  F
O        6.97512771      16.56585742      13.91902526  F
O        1.74380195       0.87188016      13.91902526  F
O        8.71890296       4.35943066      13.91902526  F
O        6.97512771       7.84698116      13.91902526  F
O        5.23135246      11.33453167      13.91902526  F
O        3.48757720      14.82208217      13.91902526  F
O       19.18155447      18.30963267      13.91902526  F
O        5.23135246       2.61565541      13.91902526  F
O        3.48757720       6.10320591      13.91902526  F
O        1.74380195       9.59075642      13.91902526  F
O       17.43777922      13.07830692      13.91902526  F
O       17.43777922       4.35943066      13.91902526  F
O       15.69400397       7.84698116      13.91902526  F
O       13.95022871       2.61565541      13.91902526  F
O       14.82211460      13.95018431      13.91902991  F
O       13.07833935      17.43773482      13.91902991  F
O       13.07833935       8.71885856      13.91902991  F
O       11.33456410      12.20640906      13.91902991  F
O        9.59078884      15.69395957      13.91902991  F
O       11.33456410       3.48753280      13.91902991  F
O        9.59078884       6.97508331      13.91902991  F
O        7.84701359      10.46263381      13.91902991  F
O        6.10323834      13.95018431      13.91902991  F
O        4.35946309      17.43773482      13.91902991  F
O        7.84701359       1.74375755      13.91902991  F
O        6.10323834       5.23130806      13.91902991  F
O        4.35946309       8.71885856      13.91902991  F
O        2.61568784      12.20640906      13.91902991  F
O       18.30966510      15.69395957      13.91902991  F
O        7.84701359      19.18151007      13.91902991  F
O        2.61568784       3.48753280      13.91902991  F
O       18.30966510       6.97508331      13.91902991  F
O       16.56588985      10.46263381      13.91902991  F
O       16.56588985       1.74375755      13.91902991  F
O       14.82211460       5.23130806      13.91902991  F
O       16.56588985      19.18151007      13.91902991  F
O       16.56589793      14.82207515      15.86863853  T
O       14.82212267      18.30962565      15.86863853  T
O       14.82212267       9.59074939      15.86863853  T
O       13.07834742      13.07829990      15.86863853  T
O       11.33457217      16.56585040      15.86863853  T
O       13.07834742       4.35942364      15.86863853  T
O       11.33457217       7.84697414      15.86863853  T
O        9.59079692      11.33452464      15.86863853  T
O        7.84702167      14.82207515      15.86863853  T
O        6.10324642      18.30962565      15.86863853  T
O        9.59079692       2.61564839      15.86863853  T
O        7.84702167       6.10319889      15.86863853  T
O        6.10324642       9.59074939      15.86863853  T
O        4.35947117      13.07829990      15.86863853  T
O       20.05344843      16.56585040      15.86863853  T
O        6.10324642       0.87187313      15.86863853  T
O        4.35947117       4.35942364      15.86863853  T
O        2.61569591       7.84697414      15.86863853  T
O       18.30967318      11.33452464      15.86863853  T
O        0.87192066       2.61564839      15.86863853  T
O       16.56589793       6.10319889      15.86863853  T
O       14.82212267       0.87187313      15.86863853  T
O       15.69400397      16.56585742      17.81822526  T
O       10.46267821       0.87188016      17.81822526  T
O       13.95022871      11.33453167      17.81822526  T
O       12.20645346      14.82208217      17.81822526  T
O       10.46267821      18.30963267      17.81822526  T
O       12.20645346       6.10320591      17.81822526  T
O       10.46267821       9.59075642      17.81822526  T
O        8.71890296      13.07830692      17.81822526  T
O        6.97512771      16.56585742      17.81822526  T
O        1.74380195       0.87188016      17.81822526  T
O        8.71890296       4.35943066      17.81822526  T
O        6.97512771       7.84698116      17.81822526  T
O        5.23135246      11.33453167      17.81822526  T
O        3.48757720      14.82208217      17.81822526  T
O       19.18155447      18.30963267      17.81822526  T
O        5.23135246       2.61565541      17.81822526  T
O        3.48757720       6.10320591      17.81822526  T
O        1.74380195       9.59075642      17.81822526  T
O       17.43777922      13.07830692      17.81822526  T
O       17.43777922       4.35943066      17.81822526  T
O       15.69400397       7.84698116      17.81822526  T
O       13.95022871       2.61565541      17.81822526  T
O       14.82211460      13.95018431      17.81822991  T
O       13.07833935      17.43773482      17.81822991  T
O       13.07833935       8.71885856      17.81822991  T
O       11.33456410      12.20640906      17.81822991  T
O        9.59078884      15.69395957      17.81822991  T
O       11.33456410       3.48753280      17.81822991  T
O        9.59078884       6.97508331      17.81822991  T
O        7.84701359      10.46263381      17.81822991  T
O        6.10323834      13.95018431      17.81822991  T
O        4.35946309      17.43773482      17.81822991  T
O        7.84701359       1.74375755      17.81822991  T
O        6.10323834       5.23130806      17.81822991  T
O        4.35946309       8.71885856      17.81822991  T
O        2.61568784      12.20640906      17.81822991  T
O       18.30966510      15.69395957      17.81822991  T
O        7.84701359      19.18151007      17.81822991  T
O        2.61568784       3.48753280      17.81822991  T
O       18.30966510       6.97508331      17.81822991  T
O       16.56588985      10.46263381      17.81822991  T
O       16.56588985       1.74375755      17.81822991  T
O       14.82211460       5.23130806      17.81822991  T
O       16.56588985      19.18151007      17.81822991  T
O       16.56589793      14.82207515      19.76783853  T
O       14.82212267      18.30962565      19.76783853  T
O       14.82212267       9.59074939      19.76783853  T
O       13.07834742      13.07829990      19.76783853  T
O       11.33457217      16.56585040      19.76783853  T
O       13.07834742       4.35942364      19.76783853  T
O       11.33457217       7.84697414      19.76783853  T
O        9.59079692      11.33452464      19.76783853  T
O        7.84702167      14.82207515      19.76783853  T
O        6.10324642      18.30962565      19.76783853  T
O        9.59079692       2.61564839      19.76783853  T
O        7.84702167       6.10319889      19.76783853  T
O        6.10324642       9.59074939      19.76783853  T
O        4.35947117      13.07829990      19.76783853  T
O       20.05344843      16.56585040      19.76783853  T
O        6.10324642       0.87187313      19.76783853  T
O        4.35947117       4.35942364      19.76783853  T
O        2.61569591       7.84697414      19.76783853  T
O       18.30967318      11.33452464      19.76783853  T
O        0.87192066       2.61564839      19.76783853  T
O       16.56589793       6.10319889      19.76783853  T
O       14.82212267       0.87187313      19.76783853  T
O       16.42984911       3.29932389      35.48585210  T
O        4.22342235       8.09470583      35.48585210  T
O       10.32663573       5.69701486      35.48585210  T
O        3.35153472      15.28777875      35.48585210  T
O        9.45474810      12.89008777      35.48585210  T
O       15.55796148      10.49239680      35.48585210  T
O        5.09530997       0.90163292      35.48585210  T
O       14.68607386      17.68546972      35.48585210  T
O       10.04241956       3.23947061      35.91760337  T
O       15.27374532       8.03485255      35.91760337  T
O        3.93920618       5.63716158      35.91760337  T
O       14.40185769      15.22792546      35.91760337  T
O        3.06731856      12.83023449      35.91760337  T
O        9.17053194      10.43254352      35.91760337  T
O       16.14563294       0.84177964      35.91760337  T
O        8.29864431      17.62561644      35.91760337  T
O       10.94672974       0.86038440      36.92687309  T
O       16.17805550       5.65576634      36.92687309  T
O        4.84351636       3.25807537      36.92687309  T
O       15.30616787      12.84883926      36.92687309  T
O        3.97162874      10.45114829      36.92687309  T
O       10.07484212       8.05345732      36.92687309  T
O       20.53749363      17.64422120      36.92687309  T
O        9.20295449      15.24653023      36.92687309  T
O       15.52554121       5.67839637      34.47656919  T
O        3.31911445      10.47377831      34.47656919  T
O        9.42232783       8.07608734      34.47656919  T
O       19.88497934      17.66685123      34.47656919  T
O        8.55044021      15.26916025      34.47656919  T
O       14.65365359      12.87146928      34.47656919  T
O        4.19100208       3.28070540      34.47656919  T
O       10.29421546       0.88301443      34.47656919  T
O       13.78370220       0.60041161      36.55034685  T
O        1.57727544       5.39579355      36.55034685  T
O        7.68048882       2.99810258      36.55034685  T
O       18.14314033      12.58886646      36.55034685  T
O        6.80860119      10.19117549      36.55034685  T
O       12.91181457       7.79348452      36.55034685  T
O        5.93671357      17.38424841      36.55034685  T
O       12.03992695      14.98655743      36.55034685  T
O       12.68857154       5.93837975      34.85310419  T
O       17.91989729      10.73376169      34.85310419  T
O        6.58535816       8.33607072      34.85310419  T
O       17.04800967      17.92683461      34.85310419  T
O        5.71347053      15.52914364      34.85310419  T
O       11.81668391      13.13145267      34.85310419  T
O        1.35403240       3.54068878      34.85310419  T
O        7.45724578       1.14299781      34.85310419  T
O       13.82539132       4.16253300      36.36106070  T
O       19.05671707       8.95791494      36.36106070  T
O        7.72217793       6.56022397      36.36106070  T
O       18.18482944      16.15098785      36.36106070  T
O        6.85029031      13.75329688      36.36106070  T
O       12.95350369      11.35560591      36.36106070  T
O        2.49085218       1.76484203      36.36106070  T
O       12.08161606      18.54867883      36.36106070  T
O       12.64688480       2.37625892      35.04239660  T
O       17.87821055       7.17164086      35.04239660  T
O        6.54367142       4.77394989      35.04239660  T
O       17.00632293      14.36471377      35.04239660  T
O        5.67178379      11.96702280      35.04239660  T
O       11.77499717       9.56933183      35.04239660  T
O        4.79989617      19.16009571      35.04239660  T
O       10.90310955      16.76240474      35.04239660  T
O        2.77636004       4.33453607      32.37116943  T
O        8.00768580       9.12991802      32.37116943  T
O       14.11089918       6.73222704      32.37116943  T
O        7.13579817      16.32299093      32.37116943  T
O       13.23901155      13.92529996      32.37116943  T
O       19.34222493      11.52760899      32.37116943  T
O        8.87957342       1.93684510      32.37116943  T
O       18.47033731      18.72068190      32.37116943  T
O       13.82668301       4.27468279      32.80292070  T
O       19.05800877       9.07006474      32.80292070  T
O        7.72346963       6.67237376      32.80292070  T
O       18.18612114      16.26313765      32.80292070  T
O        6.85158200      13.86544668      32.80292070  T
O       12.95479539      11.46775571      32.80292070  T
O        2.49214388       1.87699182      32.80292070  T
O       12.08290776      18.66082862      32.80292070  T
O       14.73099319       1.89559659      33.81219043  T
O        2.52456643       6.69097853      33.81219043  T
O        8.62777981       4.29328756      33.81219043  T
O       19.09043132      13.88405144      33.81219043  T
O        7.75589218      11.48636047      33.81219043  T
O       13.85910557       9.08866950      33.81219043  T
O        6.88400456      18.67943338      33.81219043  T
O       12.98721794      16.28174241      33.81219043  T
O        1.87205214       6.71360855      31.36188652  T
O        7.10337790      11.50899050      31.36188652  T
O       13.20659128       9.11129953      31.36188652  T
O        6.23149027      18.70206341      31.36188652  T
O       12.33470365      16.30437244      31.36188652  T
O       18.43791703      13.90668147      31.36188652  T
O        7.97526553       4.31591758      31.36188652  T
O       14.07847891       1.91822661      31.36188652  T
O       17.56796565       1.63562379      33.43566419  T
O        5.36153888       6.43100573      33.43566419  T
O       11.46475227       4.03331476      33.43566419  T
O        4.48965126      13.62407865      33.43566419  T
O       10.59286464      11.22638768      33.43566419  T
O       16.69607802       8.82869670      33.43566419  T
O        9.72097701      18.41946059      33.43566419  T
O       15.82419039      16.02176962      33.43566419  T
O       16.47283499       6.97359194      31.73842152  T
O        4.26640823      11.76897388      31.73842152  T
O       10.36962161       9.37128291      31.73842152  T
O       20.83227312      18.96204679      31.73842152  T
O        9.49773398      16.56435582      31.73842152  T
O       15.60094736      14.16666485      31.73842152  T
O        5.13829585       4.57590096      31.73842152  T
O       11.24150923       2.17820999      31.73842152  T
O       17.60965476       5.19774518      33.24637804  T
O        5.40322800       9.99312712      33.24637804  T
O       11.50644138       7.59543615      33.24637804  T
O        4.53134038      17.18620004      33.24637804  T
O       10.63455376      14.78850907      33.24637804  T
O       16.73776714      12.39081810      33.24637804  T
O        6.27511563       2.80005421      33.24637804  T
O       12.37832901       0.40236324      33.24637804  T
O       16.43114825       3.41147110      31.92771394  T
O        4.22472149       8.20685304      31.92771394  T
O       10.32793487       5.80916207      31.92771394  T
O        3.35283386      15.39992596      31.92771394  T
O        9.45604724      13.00223499      31.92771394  T
O       15.55926062      10.60454401      31.92771394  T
O        5.09660911       1.01378013      31.92771394  T
O       14.68737300      17.79761693      31.92771394  T
O        6.56062349       5.36974826      29.25648677  T
O       11.79194924      10.16513020      29.25648677  T
O       17.89516262       7.76743923      29.25648677  T
O       10.92006162      17.35820311      29.25648677  T
O       17.02327500      14.96051214      29.25648677  T
O        5.68873586      12.56282117      29.25648677  T
O       12.66383687       2.97205729      29.25648677  T
O        1.32929773       0.57436632      29.25648677  T
O       17.61094646       5.30989498      29.68823804  T
O        5.40451970      10.10527692      29.68823804  T
O       11.50773308       7.70758595      29.68823804  T
O        4.53263207      17.29834983      29.68823804  T
O       10.63584545      14.90065886      29.68823804  T
O       16.73905883      12.50296789      29.68823804  T
O        6.27640732       2.91220401      29.68823804  T
O       12.37962070       0.51451303      29.68823804  T
O        1.07750412       2.93080877      30.69750776  T
O        6.30882988       7.72619071      30.69750776  T
O       12.41204326       5.32849974      30.69750776  T
O        5.43694225      14.91926362      30.69750776  T
O       11.54015563      12.52157265      30.69750776  T
O       17.64336901      10.12388168      30.69750776  T
O        7.18071750       0.53311780      30.69750776  T
O       16.77148139      17.31695459      30.69750776  T
O        5.65631559       7.74882074      28.24720386  T
O       10.88764135      12.54420268      28.24720386  T
O       16.99085473      10.14651171      28.24720386  T
O        6.52820322       0.55574782      28.24720386  T
O       16.11896710      17.33958462      28.24720386  T
O        4.78442797      14.94189365      28.24720386  T
O       11.75952897       5.35112977      28.24720386  T
O       17.86274235       2.95343880      28.24720386  T
O        3.91447658       2.67083598      30.32098153  T
O        9.14580233       7.46621792      30.32098153  T
O       15.24901571       5.06852695      30.32098153  T
O        8.27391471      14.65929083      30.32098153  T
O       14.37712809      12.26159986      30.32098153  T
O        3.04258895       9.86390889      30.32098153  T
O       10.01768996       0.27314500      30.32098153  T
O       19.60845384      17.05698180      30.32098153  T
O        2.81934592       8.00880412      28.62373886  T
O        8.05067167      12.80418606      28.62373886  T
O       14.15388505      10.40649509      28.62373886  T
O        3.69123354       0.81573121      28.62373886  T
O       13.28199743      17.59956800      28.62373886  T
O       19.38521081      15.20187703      28.62373886  T
O        8.92255930       5.61111315      28.62373886  T
O       15.02577268       3.21342218      28.62373886  T
O        3.95616569       6.23295737      30.13169538  T
O        9.18749145      11.02833931      30.13169538  T
O       15.29070483       8.63064834      30.13169538  T
O        8.31560382      18.22141222      30.13169538  T
O       14.41881720      15.82372125      30.13169538  T
O        3.08427807      13.42603028      30.13169538  T
O       10.05937908       3.83526640      30.13169538  T
O       16.16259246       1.43757542      30.13169538  T
O        2.77765918       4.44668328      28.81303127  T
O        8.00898493       9.24206523      28.81303127  T
O       14.11219832       6.84437426      28.81303127  T
O        7.13709731      16.43513814      28.81303127  T
O       13.24031069      14.03744717      28.81303127  T
O       19.34352407      11.63975620      28.81303127  T
O        8.88087256       2.04899231      28.81303127  T
O       18.47163644      18.83282911      28.81303127  T
O       10.34488694       6.40496044      26.14180411  T
O       15.57621269      11.20034238      26.14180411  T
O        4.24167356       8.80265141      26.14180411  T
O       14.70432507      18.39341529      26.14180411  T
O        3.36978593      15.99572432      26.14180411  T
O        9.47299931      13.59803335      26.14180411  T
O       16.44810032       4.00726947      26.14180411  T
O        5.11356118       1.60957850      26.14180411  T
O        3.95745739       6.34510716      26.57355538  T
O        9.18878315      11.14048910      26.57355538  T
O       15.29199653       8.74279813      26.57355538  T
O        8.31689552      18.33356201      26.57355538  T
O       14.42010890      15.93587104      26.57355538  T
O        3.08556976      13.53818007      26.57355538  T
O       10.06067077       3.94741619      26.57355538  T
O       16.16388415       1.54972522      26.57355538  T
O        4.86176757       3.96602095      27.58282510  T
O       10.09309333       8.76140289      27.58282510  T
O       16.19630671       6.36371192      27.58282510  T
O        9.22120570      15.95447581      27.58282510  T
O       15.32441908      13.55678484      27.58282510  T
O        3.98987994      11.15909386      27.58282510  T
O       10.96498095       1.56832998      27.58282510  T
O       20.55574483      18.35216678      27.58282510  T
O        9.44057904       8.78403292      25.13252120  T
O       14.67190480      13.57941486      25.13252120  T
O        3.33736566      11.18172389      25.13252120  T
O       10.31246667       1.59096001      25.13252120  T
O       19.90323055      18.37479680      25.13252120  T
O        8.56869141      15.97710583      25.13252120  T
O       15.54379242       6.38634195      25.13252120  T
O        4.20925329       3.98865098      25.13252120  T
O        7.69874003       3.70604816      27.20629887  T
O       12.93006578       8.50143010      27.20629887  T
O        1.59552665       6.10373913      27.20629887  T
O       12.05817815      15.69450301      27.20629887  T
O       18.16139154      13.29681204      27.20629887  T
O        6.82685240      10.89912107      27.20629887  T
O       13.80195341       1.30835719      27.20629887  T
O        5.95496477      18.09219398      27.20629887  T
O        6.60360937       9.04401630      25.50905620  T
O       11.83493512      13.83939824      25.50905620  T
O       17.93814850      11.44170727      25.50905620  T
O        7.47549699       1.85094339      25.50905620  T
O       17.06626088      18.63478019      25.50905620  T
O        5.73172174      16.23708921      25.50905620  T
O       12.70682275       6.64632533      25.50905620  T
O        1.37228361       4.24863436      25.50905620  T
O        7.74042914       7.26816955      27.01701272  T
O       12.97175490      12.06355149      27.01701272  T
O       19.07496828       9.66586052      27.01701272  T
O        8.61231677       0.07509664      27.01701272  T
O       18.20308065      16.85893343      27.01701272  T
O        6.86854152      14.46124246      27.01701272  T
O       13.84364252       4.87047858      27.01701272  T
O        2.50910339       2.47278761      27.01701272  T
O        6.56192263       5.48189547      25.69834861  T
O       11.79324838      10.27727741      25.69834861  T
O       17.89646176       7.87958644      25.69834861  T
O       10.92136076      17.47035032      25.69834861  T
O       17.02457414      15.07265935      25.69834861  T
O        5.69003500      12.67496838      25.69834861  T
O       12.66513601       3.08420450      25.69834861  T
O        1.33059687       0.68651353      25.69834861  T
O       14.12915039       7.44017262      23.02712144  T
O       19.36047614      12.23555457      23.02712144  T
O        8.02593700       9.83786359      23.02712144  T
O       15.00103801       0.24709971      23.02712144  T
O        7.15404938      17.03093651      23.02712144  T
O       13.25726276      14.63324554      23.02712144  T
O        2.79461125       5.04248165      23.02712144  T
O        8.89782463       2.64479068      23.02712144  T
O        7.74172084       7.38031934      23.45887271  T
O       12.97304659      12.17570128      23.45887271  T
O       19.07625997       9.77801031      23.45887271  T
O        8.61360846       0.18724643      23.45887271  T
O       18.20437235      16.97108323      23.45887271  T
O        6.86983321      14.57339226      23.45887271  T
O       13.84493422       4.98262837      23.45887271  T
O        2.51039508       2.58493740      23.45887271  T
O        8.64603102       5.00123314      24.46814244  T
O       13.87735677       9.79661508      24.46814244  T
O        2.54281764       7.39892411      24.46814244  T
O       13.00546915      16.98968799      24.46814244  T
O       19.10868253      14.59199702      24.46814244  T
O        7.77414339      12.19430605      24.46814244  T
O       14.74924440       2.60354216      24.46814244  T
O        3.41470526       0.20585119      24.46814244  T
O       13.22484249       9.81924510      22.01783853  T
O       18.45616824      14.61462705      22.01783853  T
O        7.12162911      12.21693607      22.01783853  T
O       14.09673011       2.62617219      22.01783853  T
O        2.76219098       0.22848122      22.01783853  T
O       12.35295486      17.01231802      22.01783853  T
O        1.89030335       7.42155413      22.01783853  T
O        7.99351673       5.02386316      22.01783853  T
O       11.48300347       4.74126034      24.09161620  T
O       16.71432923       9.53664228      24.09161620  T
O        5.37979009       7.13895131      24.09161620  T
O       15.84244160      16.72971520      24.09161620  T
O        4.50790247      14.33202423      24.09161620  T
O       10.61111585      11.93433325      24.09161620  T
O       17.58621685       2.34356937      24.09161620  T
O        9.73922822      19.12740617      24.09161620  T
O       10.38787281      10.07922848      22.39437353  T
O       15.61919857      14.87461043      22.39437353  T
O        4.28465943      12.47691946      22.39437353  T
O       11.25976044       2.88615557      22.39437353  T
O       17.36297382       0.48846460      22.39437353  T
O        9.51598519      17.27230140      22.39437353  T
O       16.49108619       7.68153751      22.39437353  T
O        5.15654706       5.28384654      22.39437353  T
O       11.52469259       8.30338173      23.90233005  T
O       16.75601835      13.09876367      23.90233005  T
O        5.42147921      10.70107270      23.90233005  T
O       12.39658022       1.11030882      23.90233005  T
O        4.54959158      17.89414562      23.90233005  T
O       10.65280496      15.49645465      23.90233005  T
O       17.62790597       5.90569076      23.90233005  T
O        6.29336684       3.50799979      23.90233005  T
O       10.34618608       6.51710765      22.58366595  T
O       15.57751183      11.31248959      22.58366595  T
O        4.24297270       8.91479862      22.58366595  T
O       14.70562420      18.50556251      22.58366595  T
O        3.37108507      16.10787153      22.58366595  T
O        9.47429845      13.71018056      22.58366595  T
O       16.44939946       4.11941668      22.58366595  T
O        5.11486032       1.72172571      22.58366595  T
