 DBCSR| CPU Multiplication driver                                           XSMM (U)
 DBCSR| Multrec recursion limit                                              512 (U)
 DBCSR| Multiplication stack size                                           1000 (D)
 DBCSR| Maximum elements for images                                    UNLIMITED (U)
 DBCSR| Multiplicative factor virtual images                                   1 (U)
 DBCSR| Use multiplication densification                                       T (D)
 DBCSR| Multiplication size stacks                                             3 (U)
 DBCSR| Use memory pool for CPU allocation                                     F (U)
 DBCSR| Number of 3D layers                                               SINGLE (U)
 DBCSR| Use MPI memory allocation                                              F (U)
 DBCSR| Use RMA algorithm                                                      F (U)
 DBCSR| Use Communication thread                                               T (U)
 DBCSR| Communication thread load                                             60 (D)
 DBCSR| MPI: My process id                                                     0
 DBCSR| MPI: Number of processes                                              32
 DBCSR| OMP: Current number of threads                                         8
 DBCSR| OMP: Max number of threads                                             8
 DBCSR| Split modifier for TAS multiplication algorithm                  1.0E+00 (U)


  **** **** ******  **  PROGRAM STARTED AT               2026-08-31 15:51:34.972
 ***** ** ***  *** **   PROGRAM STARTED ON                             nid004776
 **    ****   ******    PROGRAM STARTED BY                                agne_r
 ***** **    ** ** **   PROGRAM PROCESS ID                                131533
  **** **  *******  **  PROGRAM STARTED IN /mnt/lustre/a2fs-work3/work/e89/e89/a
                                           gne_r/Crystalline_HfO2_Interfaces/Cla
                                           ude/HfO2_STO_interfaces/V4_lattice_ma
                                           tches/updated/V4_lattice_matches/STO_
                                           HfO2_m111_pbesol_matches/configs/m03_
                                           A0137_eps2p8

 CP2K| version string:                                       CP2K version 2024.3
 CP2K| source code revision number:                                  git:6712648
 CP2K| cp2kflags: omp libint fftw3 libxc libgrpp elpa parallel scalapack cosma x
 CP2K|            smm plumed2 spglib mkl sirius libvori libbqb libvdwxc hdf5
 CP2K| is freely available from                            https://www.cp2k.org/
 CP2K| Program compiled at                       Thu 12 Sep 2024 10:20:47 AM BST
 CP2K| Program compiled on                                                  ln04
 CP2K| Program compiled for                                                local
 CP2K| Data directory path    /mnt/lustre/a2fs-work1/work/y07/shared/apps/core/c
 CP2K| Input file name                                                  cp2k.inp

 GLOBAL| Force Environment number                                              1
 GLOBAL| Basis set file name                                        BASIS_MOLOPT
 GLOBAL| Potential file name                                      GTH_POTENTIALS
 GLOBAL| MM Potential file name                                     MM_POTENTIAL
 GLOBAL| Coordinate file name                                      interface.cif
 GLOBAL| Method name                                                        CP2K
 GLOBAL| Project name                                           m03_A0137_eps2p8
 GLOBAL| Run type                                                   ENERGY_FORCE
 GLOBAL| FFT library                                                       FFTW3
 GLOBAL| Diagonalization library                                            ELPA
 GLOBAL| DGEMM library                                                      BLAS
 GLOBAL| Minimum number of eigenvectors for ELPA usage                        16
 GLOBAL| Orthonormality check for eigenvectors                          DISABLED
 GLOBAL| Matrix multiplication library                                     COSMA
 GLOBAL| All-to-all communication in single precision                          F
 GLOBAL| FFTs using library dependent lengths                                  T
 GLOBAL| Grid backend                                                       AUTO
 GLOBAL| Global print level                                                  LOW
 GLOBAL| MPI I/O enabled                                                       T
 GLOBAL| Total number of message passing processes                            32
 GLOBAL| Number of threads for this process                                    8
 GLOBAL| This output is from process                                           0
 GLOBAL| Stack size for threads created by OpenMP (OMP_STACKSIZE)        default
 GLOBAL| CPU model name                          AMD EPYC 7742 64-Core Processor
 GLOBAL| CPUID                                                              1002

 MEMORY| system memory details [Kb]
 MEMORY|                        rank 0           min           max       average
 MEMORY| MemTotal            263266888     263266628     263266888     263266758
 MEMORY| MemFree             247393000     247393000     247520628     247456814
 MEMORY| Buffers                203432        112704        203432        158068
 MEMORY| Cached                1217456       1208164       1217456       1212810
 MEMORY| Slab                  4357592       4357592       4394260       4375926
 MEMORY| SReclaimable          2263860       2251348       2263860       2257604
 MEMORY| MemLikelyFree       251077748     251077748     251092844     251085296


 GENERATE|  Preliminary Number of Bonds generated:                             0
 GENERATE|  Achieved consistency in connectivity generation.

 *******************************************************************************
 *******************************************************************************
 **                                                                           **
 **     #####                         ##              ##                      **
 **    ##   ##            ##          ##              ##                      **
 **   ##     ##                       ##            ######                    **
 **   ##     ##  ##   ##  ##   #####  ##  ##   ####   ##    #####    #####    **
 **   ##     ##  ##   ##  ##  ##      ## ##   ##      ##   ##   ##  ##   ##   **
 **   ##  ## ##  ##   ##  ##  ##      ####     ###    ##   ######   ######    **
 **    ##  ###   ##   ##  ##  ##      ## ##      ##   ##   ##       ##        **
 **     #######   #####   ##   #####  ##  ##  ####    ##    #####   ##        **
 **           ##                                                    ##        **
 **                                                                           **
 **                                                ... make the atoms dance   **
 **                                                                           **
 **            Copyright (C) by CP2K developers group (2000-2024)             **
 **                      J. Chem. Phys. 152, 194103 (2020)                    **
 **                                                                           **
 *******************************************************************************


 TOTAL NUMBERS AND MAXIMUM NUMBERS

  Total number of            - Atomic kinds:                                   4
                             - Atoms:                                        315
                             - Shell sets:                                   315
                             - Shells:                                      1863
                             - Primitive Cartesian functions:               1689
                             - Cartesian basis functions:                   5916
                             - Spherical basis functions:                   5253

  Maximum angular momentum of- Orbital basis functions:                        3
                             - Local part of the GTH pseudopotential:          2
                             - Non-local part of the GTH pseudopotential:      4


 SCF PARAMETERS         Density guess:                                    ATOMIC
                        --------------------------------------------------------
                        max_scf:                                              60
                        max_scf_history:                                       0
                        max_diis:                                              4
                        --------------------------------------------------------
                        eps_scf:                                        1.00E-06
                        eps_scf_history:                                0.00E+00
                        eps_diis:                                       1.00E-01
                        eps_eigval:                                     1.00E-05
                        --------------------------------------------------------
                        level_shift [a.u.]:                             0.000000
                        --------------------------------------------------------
                        Outer loop SCF in use 
                        No variables optimised in outer loop
                        eps_scf                                         1.00E-06
                        max_scf                                               25
                        No outer loop optimization
                        step_size                                       5.00E-01

 Number of electrons:                                                       2520
 Number of occupied orbitals:                                               1260
 Number of molecular orbitals:                                              1260

 Number of orbital functions:                                               5253
 Number of independent orbital functions:                                   5253

 Extrapolation method: initial_guess


 SCF WAVEFUNCTION OPTIMIZATION

  ----------------------------------- OT ---------------------------------------
  Minimizer      : DIIS                : direct inversion
                                         in the iterative subspace
                                         using   7 DIIS vectors
                                         safer DIIS on
  Preconditioner : FULL_SINGLE_INVERSE : inversion of 
                                         H + eS - 2*(Sc)(c^T*H*c+const)(Sc)^T
  Precond_solver : DEFAULT
  stepsize       :    0.08000000                  energy_gap     :    0.05000000
  eps_taylor     :   0.10000E-15                  max_taylor     :             4
  ----------------------------------- OT ---------------------------------------

  Step     Update method      Time    Convergence         Total energy    Change
  ------------------------------------------------------------------------------
     1 OT DIIS     0.80E-01    3.1     0.04101823     -8308.2187064833 -8.31E+03
     2 OT DIIS     0.80E-01    1.7     0.26641902     -6262.7697065622  2.05E+03
     3 OT DIIS     0.80E-01    1.7     0.01768882     -8393.3161231151 -2.13E+03
     4 OT DIIS     0.80E-01    1.7     0.00520317     -8414.7041812715 -2.14E+01
     5 OT DIIS     0.80E-01    1.7     0.00441283     -8432.4144861880 -1.77E+01
     6 OT DIIS     0.80E-01    1.6     0.00404819     -8454.1393746177 -2.17E+01
     7 OT DIIS     0.80E-01    1.6     0.00341713     -8469.6408721959 -1.55E+01
     8 OT DIIS     0.80E-01    1.6     0.00234256     -8495.6294459857 -2.60E+01
     9 OT DIIS     0.80E-01    1.6     0.00219844     -8509.1360190785 -1.35E+01
    10 OT DIIS     0.80E-01    1.6     0.00218906     -8514.8022304314 -5.67E+00
    11 OT DIIS     0.80E-01    1.6     0.00178937     -8525.1903691893 -1.04E+01
    12 OT DIIS     0.80E-01    1.6     0.00156753     -8530.7811307829 -5.59E+00
    13 OT DIIS     0.80E-01    1.6     0.00122395     -8538.0771708474 -7.30E+00
    14 OT DIIS     0.80E-01    1.5     0.00105524     -8545.0588069987 -6.98E+00
    15 OT DIIS     0.80E-01    1.5     0.00103714     -8547.9214595613 -2.86E+00
    16 OT DIIS     0.80E-01    1.5     0.00095314     -8548.7512951485 -8.30E-01
    17 OT DIIS     0.80E-01    1.6     0.00094174     -8553.9619954556 -5.21E+00
    18 OT DIIS     0.80E-01    1.5     0.00081686     -8555.2348179497 -1.27E+00
    19 OT DIIS     0.80E-01    1.6     0.00074333     -8558.0023900182 -2.77E+00
    20 OT DIIS     0.80E-01    1.5     0.00077190     -8559.9218943168 -1.92E+00
    21 OT DIIS     0.80E-01    1.6     0.00071127     -8562.2853453483 -2.36E+00
    22 OT DIIS     0.80E-01    1.5     0.00059356     -8564.6131556709 -2.33E+00
    23 OT DIIS     0.80E-01    1.5     0.00057862     -8566.9024518364 -2.29E+00
    24 OT DIIS     0.80E-01    1.5     0.00050538     -8567.9681898592 -1.07E+00
    25 OT DIIS     0.80E-01    1.5     0.00050910     -8570.0066835141 -2.04E+00
    26 OT DIIS     0.80E-01    1.5     0.00048121     -8571.1419617781 -1.14E+00
    27 OT DIIS     0.80E-01    1.5     0.00041172     -8571.8458398388 -7.04E-01
    28 OT DIIS     0.80E-01    1.5     0.00041754     -8572.9711912683 -1.13E+00
    29 OT DIIS     0.80E-01    1.5     0.00036741     -8573.5953667091 -6.24E-01
    30 OT DIIS     0.80E-01    1.5     0.00037557     -8574.5159964507 -9.21E-01
    31 OT DIIS     0.80E-01    1.5     0.00032525     -8574.9334933318 -4.17E-01
    32 OT DIIS     0.80E-01    1.5     0.00028862     -8575.8540581203 -9.21E-01
    33 OT DIIS     0.80E-01    1.5     0.00027034     -8576.3502829161 -4.96E-01
    34 OT DIIS     0.80E-01    1.5     0.00024715     -8577.0208911950 -6.71E-01
    35 OT DIIS     0.80E-01    1.5     0.00023849     -8577.2635506367 -2.43E-01
    36 OT DIIS     0.80E-01    1.5     0.00022340     -8577.6917974752 -4.28E-01
    37 OT DIIS     0.80E-01    1.5     0.00021648     -8577.9654011132 -2.74E-01
    38 OT DIIS     0.80E-01    1.5     0.00020701     -8578.1732979434 -2.08E-01
    39 OT DIIS     0.80E-01    1.5     0.00019931     -8578.4451715662 -2.72E-01
    40 OT DIIS     0.80E-01    1.5     0.00019171     -8578.6742182977 -2.29E-01
    41 OT DIIS     0.80E-01    1.5     0.00018341     -8578.9266304966 -2.52E-01
    42 OT DIIS     0.80E-01    1.5     0.00017857     -8579.0830372367 -1.56E-01
    43 OT DIIS     0.80E-01    1.5     0.00017312     -8579.2237102222 -1.41E-01
    44 OT DIIS     0.80E-01    1.5     0.00016383     -8579.4924319413 -2.69E-01
    45 OT DIIS     0.80E-01    1.5     0.00015663     -8579.6524300800 -1.60E-01
    46 OT DIIS     0.80E-01    1.5     0.00014564     -8579.9007404816 -2.48E-01
    47 OT DIIS     0.80E-01    1.5     0.00014248     -8579.9600872115 -5.93E-02
    48 OT DIIS     0.80E-01    1.5     0.00013839     -8580.0616219498 -1.02E-01
    49 OT DIIS     0.80E-01    1.5     0.00013279     -8580.2113134868 -1.50E-01
    50 OT DIIS     0.80E-01    1.5     0.00012895     -8580.3087360016 -9.74E-02
    51 OT DIIS     0.80E-01    1.5     0.00012012     -8580.4989693191 -1.90E-01
    52 OT DIIS     0.80E-01    1.5     0.00011566     -8580.6083804707 -1.09E-01
    53 OT DIIS     0.80E-01    1.5     0.00011077     -8580.7291011335 -1.21E-01
    54 OT DIIS     0.80E-01    1.5     0.00010831     -8580.7855717760 -5.65E-02
    55 OT DIIS     0.80E-01    1.5     0.00010431     -8580.8955476818 -1.10E-01
    56 OT DIIS     0.80E-01    1.5     0.00010311     -8580.9140548024 -1.85E-02
    57 OT DIIS     0.80E-01    1.5     0.00010067     -8580.9558104472 -4.18E-02
    58 OT DIIS     0.80E-01    1.5     0.00009529     -8581.0763832881 -1.21E-01
    59 OT DIIS     0.80E-01    1.5     0.00009193     -8581.1513939733 -7.50E-02
    60 OT DIIS     0.80E-01    1.5     0.00008948     -8581.1966675567 -4.53E-02

  Leaving inner SCF loop after reaching    60 steps.


  Electronic density on regular grids:      -2519.9999997610        0.0000002390
  Core density on regular grids:             2519.9999998458       -0.0000001542
  Total dipole moment perpendicular to 
  the slab [electrons-Angstroem]:               1.8915318838
  Total charge density on r-space grids:        0.0000000848
  Total charge density g-space grids:           0.0000000848

  Overlap energy of the core charge distribution:               0.00000065065942
  Self energy of the core charge distribution:             -17172.14560379399336
  Core Hamiltonian energy:                                   4363.95459209979435
  Hartree energy:                                            5598.75063060445427
  Exchange-correlation energy:                              -1371.75628711765012

  Total energy:                                             -8581.19666755673461

  outer SCF iter =    1 RMS gradient =   0.89E-04 energy =      -8581.1966675567

  ----------------------------------- OT ---------------------------------------
  Minimizer      : DIIS                : direct inversion
                                         in the iterative subspace
                                         using   7 DIIS vectors
                                         safer DIIS on
  Preconditioner : FULL_SINGLE_INVERSE : inversion of 
                                         H + eS - 2*(Sc)(c^T*H*c+const)(Sc)^T
  Precond_solver : DEFAULT
  stepsize       :    0.08000000                  energy_gap     :    0.05000000
  eps_taylor     :   0.10000E-15                  max_taylor     :             4
  ----------------------------------- OT ---------------------------------------

  Step     Update method      Time    Convergence         Total energy    Change
  ------------------------------------------------------------------------------
     1 OT DIIS     0.80E-01    4.1     0.00089566     -8581.2755540657 -7.89E-02
     2 OT DIIS     0.80E-01    1.6     0.00085464     -8581.6400718159 -3.65E-01
     3 OT DIIS     0.80E-01    1.6     0.00115053     -8581.7928749988 -1.53E-01
     4 OT DIIS     0.80E-01    1.6     0.00111254     -8581.9608159967 -1.68E-01
     5 OT DIIS     0.80E-01    1.6     0.00091836     -8582.1283573734 -1.68E-01
     6 OT DIIS     0.80E-01    1.6     0.00081482     -8582.2847654479 -1.56E-01
     7 OT DIIS     0.80E-01    1.6     0.00108262     -8582.3667397502 -8.20E-02
     8 OT DIIS     0.80E-01    1.6     0.00059440     -8582.4491255052 -8.24E-02
     9 OT DIIS     0.80E-01    1.5     0.00057484     -8582.4879792199 -3.89E-02
    10 OT DIIS     0.80E-01    1.5     0.00042618     -8582.5137244989 -2.57E-02
    11 OT DIIS     0.80E-01    1.6     0.00035957     -8582.5268356883 -1.31E-02
    12 OT DIIS     0.80E-01    1.5     0.00031083     -8582.5422353882 -1.54E-02
    13 OT DIIS     0.80E-01    1.5     0.00021197     -8582.5508280644 -8.59E-03
    14 OT DIIS     0.80E-01    1.5     0.00014425     -8582.5580519974 -7.22E-03
    15 OT DIIS     0.80E-01    1.5     0.00013812     -8582.5606940573 -2.64E-03
    16 OT DIIS     0.80E-01    1.5     0.00010186     -8582.5636532697 -2.96E-03
    17 OT DIIS     0.80E-01    1.5     0.00009110     -8582.5656742063 -2.02E-03
    18 OT DIIS     0.80E-01    1.5     0.00006651     -8582.5670035553 -1.33E-03
    19 OT DIIS     0.80E-01    1.5     0.00005403     -8582.5678107366 -8.07E-04
    20 OT DIIS     0.80E-01    1.5     0.00004987     -8582.5686554804 -8.45E-04
    21 OT DIIS     0.80E-01    1.5     0.00003627     -8582.5690798684 -4.24E-04
    22 OT DIIS     0.80E-01    1.5     0.00004408     -8582.5694321005 -3.52E-04
    23 OT DIIS     0.80E-01    1.5     0.00003201     -8582.5698628857 -4.31E-04
    24 OT DIIS     0.80E-01    1.5     0.00003089     -8582.5701326636 -2.70E-04
    25 OT DIIS     0.80E-01    1.5     0.00002748     -8582.5703307938 -1.98E-04
    26 OT DIIS     0.80E-01    1.5     0.00002561     -8582.5705413049 -2.11E-04
    27 OT DIIS     0.80E-01    1.5     0.00002220     -8582.5707043601 -1.63E-04
    28 OT DIIS     0.80E-01    1.5     0.00002248     -8582.5707928867 -8.85E-05
    29 OT DIIS     0.80E-01    1.5     0.00001943     -8582.5709059905 -1.13E-04
    30 OT DIIS     0.80E-01    1.5     0.00001725     -8582.5710055878 -9.96E-05
    31 OT DIIS     0.80E-01    1.5     0.00002200     -8582.5710209119 -1.53E-05
    32 OT DIIS     0.80E-01    1.5     0.00001658     -8582.5710845789 -6.37E-05
    33 OT DIIS     0.80E-01    1.5     0.00001584     -8582.5711242912 -3.97E-05
    34 OT DIIS     0.80E-01    1.5     0.00001479     -8582.5711479548 -2.37E-05
    35 OT DIIS     0.80E-01    1.5     0.00001371     -8582.5711591292 -1.12E-05
    36 OT DIIS     0.80E-01    1.5     0.00001242     -8582.5711896360 -3.05E-05
    37 OT DIIS     0.80E-01    1.5     0.00001139     -8582.5712003707 -1.07E-05
    38 OT DIIS     0.80E-01    1.5     0.00000938     -8582.5712050345 -4.66E-06
    39 OT DIIS     0.80E-01    1.5     0.00001038     -8582.5712221594 -1.71E-05
    40 OT DIIS     0.80E-01    1.5     0.00000849     -8582.5712285292 -6.37E-06
    41 OT DIIS     0.80E-01    1.5     0.00000796     -8582.5712373078 -8.78E-06
    42 OT DIIS     0.80E-01    1.5     0.00000771     -8582.5712447357 -7.43E-06
    43 OT DIIS     0.80E-01    1.5     0.00000736     -8582.5712513743 -6.64E-06
    44 OT DIIS     0.80E-01    1.5     0.00000692     -8582.5712622266 -1.09E-05
    45 OT DIIS     0.80E-01    1.5     0.00000709     -8582.5712680980 -5.87E-06
    46 OT DIIS     0.80E-01    1.5     0.00000661     -8582.5712694373 -1.34E-06
    47 OT DIIS     0.80E-01    1.5     0.00000664     -8582.5712810213 -1.16E-05
    48 OT DIIS     0.80E-01    1.5     0.00000637     -8582.5712830402 -2.02E-06
    49 OT DIIS     0.80E-01    1.5     0.00000583     -8582.5712871804 -4.14E-06
    50 OT DIIS     0.80E-01    1.5     0.00000558     -8582.5712906424 -3.46E-06
    51 OT DIIS     0.80E-01    1.5     0.00000519     -8582.5712948402 -4.20E-06
    52 OT DIIS     0.80E-01    1.5     0.00000474     -8582.5712990510 -4.21E-06
    53 OT DIIS     0.80E-01    1.5     0.00000478     -8582.5713022088 -3.16E-06
    54 OT DIIS     0.80E-01    1.5     0.00000461     -8582.5713035325 -1.32E-06
    55 OT DIIS     0.80E-01    1.5     0.00000438     -8582.5713093370 -5.80E-06
    56 OT DIIS     0.80E-01    1.5     0.00000468     -8582.5713112585 -1.92E-06
    57 OT DIIS     0.80E-01    1.5     0.00000439     -8582.5713138435 -2.59E-06
    58 OT DIIS     0.80E-01    1.5     0.00000440     -8582.5713161079 -2.26E-06
    59 OT DIIS     0.80E-01    1.5     0.00000422     -8582.5713195370 -3.43E-06
    60 OT DIIS     0.80E-01    1.5     0.00000391     -8582.5713212111 -1.67E-06

  Leaving inner SCF loop after reaching    60 steps.


  Electronic density on regular grids:      -2519.9999997616        0.0000002384
  Core density on regular grids:             2519.9999998458       -0.0000001542
  Total dipole moment perpendicular to 
  the slab [electrons-Angstroem]:               2.6636986004
  Total charge density on r-space grids:        0.0000000842
  Total charge density g-space grids:           0.0000000842

  Overlap energy of the core charge distribution:               0.00000065065942
  Self energy of the core charge distribution:             -17172.14560379399336
  Core Hamiltonian energy:                                   4360.28408955984924
  Hartree energy:                                            5601.02347341087534
  Exchange-correlation energy:                              -1371.73328103845733

  Total energy:                                             -8582.57132121106588

  outer SCF iter =    2 RMS gradient =   0.39E-05 energy =      -8582.5713212111

  ----------------------------------- OT ---------------------------------------
  Minimizer      : DIIS                : direct inversion
                                         in the iterative subspace
                                         using   7 DIIS vectors
                                         safer DIIS on
  Preconditioner : FULL_SINGLE_INVERSE : inversion of 
                                         H + eS - 2*(Sc)(c^T*H*c+const)(Sc)^T
  Precond_solver : DEFAULT
  stepsize       :    0.08000000                  energy_gap     :    0.05000000
  eps_taylor     :   0.10000E-15                  max_taylor     :             4
  ----------------------------------- OT ---------------------------------------

  Step     Update method      Time    Convergence         Total energy    Change
  ------------------------------------------------------------------------------
     1 OT DIIS     0.80E-01    4.0     0.00000519     -8582.5713230550 -1.84E-06
     2 OT DIIS     0.80E-01    1.4     0.00000777     -8582.5713306726 -7.62E-06
     3 OT DIIS     0.80E-01    1.4     0.00000392     -8582.5713359613 -5.29E-06
     4 OT DIIS     0.80E-01    1.4     0.00000524     -8582.5713489234 -1.30E-05
     5 OT DIIS     0.80E-01    1.4     0.00000200     -8582.5713582916 -9.37E-06
     6 OT DIIS     0.80E-01    1.4     0.00000148     -8582.5713591382 -8.47E-07
     7 OT DIIS     0.80E-01    1.4     0.00000150     -8582.5713608172 -1.68E-06
     8 OT DIIS     0.80E-01    1.4     0.00000112     -8582.5713629912 -2.17E-06
     9 OT DIIS     0.80E-01    1.4     0.00000127     -8582.5713630104 -1.91E-08
    10 OT DIIS     0.80E-01    1.4     0.00000068     -8582.5713639401 -9.30E-07

  *** SCF run converged in    10 steps ***


  Electronic density on regular grids:      -2519.9999997616        0.0000002384
  Core density on regular grids:             2519.9999998458       -0.0000001542
  Total dipole moment perpendicular to 
  the slab [electrons-Angstroem]:               2.6643313954
  Total charge density on r-space grids:        0.0000000842
  Total charge density g-space grids:           0.0000000842

  Overlap energy of the core charge distribution:               0.00000065065942
  Self energy of the core charge distribution:             -17172.14560379399336
  Core Hamiltonian energy:                                   4360.28389122871522
  Hartree energy:                                            5601.02360730035252
  Exchange-correlation energy:                              -1371.73325932579041

  Total energy:                                             -8582.57136394005647

  outer SCF iter =    3 RMS gradient =   0.68E-06 energy =      -8582.5713639401
  outer SCF loop converged in   3 iterations or  130 steps


 ENERGY| Total FORCE_EVAL ( QS ) energy [a.u.]:            -8582.571364122542946

 ATOMIC FORCES in [a.u.]

 # Atom   Kind   Element          X              Y              Z
      1      1      Sr          0.00001141    -0.00000698     0.02955464
      2      1      Sr         -0.00000218    -0.00000079     0.02956278
      3      1      Sr         -0.00000191     0.00000188     0.02956007
      4      1      Sr          0.00000028    -0.00000305     0.02956449
      5      1      Sr         -0.00001040    -0.00000578     0.02956067
      6      1      Sr         -0.00001415    -0.00000004     0.02955898
      7      1      Sr         -0.00001014     0.00000974     0.02956158
      8      1      Sr          0.00001745     0.00000278     0.02956096
      9      1      Sr          0.00000926     0.00000382     0.02955895
     10      1      Sr          0.00003596    -0.00002290     0.00272417
     11      1      Sr          0.00001144    -0.00000194     0.00277296
     12      1      Sr         -0.00001481     0.00000548     0.00277801
     13      1      Sr          0.00000046    -0.00002357     0.00276716
     14      1      Sr         -0.00004816    -0.00003402     0.00277798
     15      1      Sr         -0.00006112     0.00001340     0.00276219
     16      1      Sr         -0.00002571     0.00001499     0.00278855
     17      1      Sr          0.00007814     0.00003551     0.00274455
     18      1      Sr          0.00002600     0.00002058     0.00279761
     19      1      Sr          0.00156898     0.00040411     0.01500037
     20      1      Sr         -0.00079476     0.00012909     0.01519984
     21      1      Sr          0.00162183     0.00006548     0.01405595
     22      1      Sr         -0.00209831    -0.00014317     0.01399239
     23      1      Sr         -0.00068971    -0.00027449     0.01400938
     24      1      Sr         -0.00078999     0.00073091     0.01667396
     25      1      Sr          0.00121953    -0.00059428     0.01442134
     26      1      Sr         -0.00074611     0.00050238     0.01398507
     27      1      Sr          0.00076487     0.00051701     0.01610895
     28      2      Hf          0.01586453     0.01838579    -0.04911535
     29      2      Hf          0.01587949     0.01841346    -0.04916497
     30      2      Hf          0.01598653     0.01846390    -0.04914557
     31      2      Hf         -0.03434974     0.00764584    -0.01322847
     32      2      Hf         -0.03435193     0.00754435    -0.01316745
     33      2      Hf         -0.03434223     0.00751949    -0.01324361
     34      2      Hf          0.03930360     0.01615650     0.01139417
     35      2      Hf          0.03918209     0.01609184     0.01160784
     36      2      Hf          0.03920585     0.01606360     0.01155984
     37      2      Hf          0.00136126    -0.01066428     0.04987429
     38      2      Hf          0.00141968    -0.01064882     0.04984383
     39      2      Hf          0.00129130    -0.01068026     0.04973020
     40      2      Hf         -0.00264280    -0.00354744    -0.00590918
     41      2      Hf         -0.00277192    -0.00361264    -0.00591115
     42      2      Hf         -0.00279885    -0.00362993    -0.00587322
     43      2      Hf          0.00883519    -0.00239716     0.01519322
     44      2      Hf          0.00876694    -0.00250104     0.01517487
     45      2      Hf          0.00884769    -0.00233766     0.01519232
     46      2      Hf         -0.00505046    -0.02015489     0.00848183
     47      2      Hf         -0.00503463    -0.02006524     0.00849734
     48      2      Hf         -0.00499251    -0.02014067     0.00846876
     49      2      Hf         -0.00034896     0.02361748    -0.01145972
     50      2      Hf         -0.00043217     0.02364066    -0.01136909
     51      2      Hf         -0.00044072     0.02352420    -0.01133097
     52      2      Hf         -0.00475776    -0.00275220    -0.01181936
     53      2      Hf         -0.00486063    -0.00271613    -0.01190881
     54      2      Hf         -0.00491658    -0.00265174    -0.01200089
     55      2      Hf          0.00481236     0.00270302     0.01191388
     56      2      Hf          0.00481473     0.00279198     0.01195406
     57      2      Hf          0.00464305     0.00275284     0.01198592
     58      2      Hf         -0.00319868    -0.02184928     0.00603094
     59      2      Hf         -0.00317399    -0.02195158     0.00603890
     60      2      Hf         -0.00294691    -0.02191925     0.00601266
     61      2      Hf          0.00298349     0.02180522    -0.00612476
     62      2      Hf          0.00308763     0.02189331    -0.00614648
     63      2      Hf          0.00314952     0.02189620    -0.00597341
     64      2      Hf         -0.00837376     0.00201926    -0.01525515
     65      2      Hf         -0.00839510     0.00217646    -0.01441872
     66      2      Hf         -0.00892836     0.00141648    -0.01419627
     67      2      Hf          0.00254124     0.00356833     0.00633531
     68      2      Hf          0.00287016     0.00357146     0.00605859
     69      2      Hf          0.00372471     0.00377483     0.00667538
     70      2      Hf          0.00042571    -0.02312200     0.01077572
     71      2      Hf          0.00030961    -0.02352710     0.01111206
     72      2      Hf         -0.00038291    -0.02364153     0.01075151
     73      2      Hf          0.00450206     0.02043341    -0.00795804
     74      2      Hf          0.00469246     0.02000835    -0.00885712
     75      2      Hf          0.00495260     0.02028831    -0.00844968
     76      2      Hf          0.02528309    -0.01206553     0.01222275
     77      2      Hf          0.03751880    -0.01186601     0.01305142
     78      2      Hf          0.03313657    -0.00539387     0.00430599
     79      2      Hf         -0.01169498    -0.01657712     0.03755856
     80      2      Hf         -0.01736592    -0.01894636     0.03777837
     81      2      Hf         -0.01567047    -0.01628410     0.03908385
     82      2      Hf         -0.00809962     0.00857812    -0.04180080
     83      2      Hf          0.00259604     0.01038772    -0.04805234
     84      2      Hf         -0.00397411     0.00859675    -0.04174560
     85      2      Hf         -0.02077721    -0.01244844    -0.00495480
     86      2      Hf         -0.03891851    -0.01157137    -0.01599910
     87      2      Hf         -0.04210126    -0.02193122     0.00489103
     88      3      Ti          0.00003599     0.00000585    -0.01565278
     89      3      Ti         -0.00007207     0.00000608    -0.01571518
     90      3      Ti         -0.00001045    -0.00000654    -0.01567614
     91      3      Ti         -0.00001486     0.00000380    -0.01573911
     92      3      Ti          0.00002205    -0.00003008    -0.01588956
     93      3      Ti         -0.00002354     0.00003761    -0.01583855
     94      3      Ti          0.00003029     0.00001225    -0.01569163
     95      3      Ti          0.00002910    -0.00000584    -0.01567397
     96      3      Ti         -0.00001208    -0.00003925    -0.01569567
     97      3      Ti          0.00024925     0.00037990    -0.00199740
     98      3      Ti         -0.00013141    -0.00019717    -0.00112399
     99      3      Ti          0.00000011     0.00017265    -0.00195622
    100      3      Ti          0.00013456    -0.00029796    -0.00228536
    101      3      Ti         -0.00021625    -0.00019948    -0.00307971
    102      3      Ti          0.00004505     0.00021744    -0.00181080
    103      3      Ti          0.00017854     0.00007467    -0.00139865
    104      3      Ti         -0.00003157    -0.00019229    -0.00125079
    105      3      Ti         -0.00023094    -0.00014027    -0.00154406
    106      3      Ti          0.00095132    -0.02558388    -0.01895829
    107      3      Ti          0.00348947     0.01615016    -0.03973602
    108      3      Ti          0.01135127    -0.01998198    -0.03617550
    109      3      Ti          0.00361096     0.02636531    -0.03818246
    110      3      Ti         -0.00182472     0.01346492    -0.04311245
    111      3      Ti         -0.00456569     0.00622526    -0.05090359
    112      3      Ti          0.00704136     0.00008769    -0.03975469
    113      3      Ti         -0.00416923     0.02474935    -0.03830514
    114      3      Ti         -0.01598315    -0.01885624    -0.02988786
    115      4      O          -0.00112722     0.00009254    -0.00136306
    116      4      O           0.00000496     0.00000252    -0.00141674
    117      4      O          -0.00048828     0.00003576    -0.00130863
    118      4      O           0.00074316    -0.00007146    -0.00141338
    119      4      O           0.00112901    -0.00005165    -0.00133477
    120      4      O          -0.00073982     0.00006856    -0.00138095
    121      4      O           0.00050214    -0.00008078    -0.00129213
    122      4      O           0.00117224    -0.00011905    -0.00139748
    123      4      O          -0.00118163     0.00013363    -0.00139724
    124      4      O          -0.00072240     0.00047550    -0.00101027
    125      4      O           0.00045521    -0.00030709    -0.00103695
    126      4      O          -0.00058186     0.00042274    -0.00102520
    127      4      O           0.00067183    -0.00046733    -0.00102446
    128      4      O           0.00027327    -0.00016498    -0.00099661
    129      4      O           0.00004237    -0.00000514    -0.00102908
    130      4      O          -0.00023676     0.00016517    -0.00101424
    131      4      O           0.00054155    -0.00042851    -0.00101451
    132      4      O          -0.00043840     0.00031000    -0.00103986
    133      4      O          -0.00021830     0.00014740    -0.01605100
    134      4      O           0.00061857    -0.00043708    -0.01606793
    135      4      O          -0.00052721     0.00038350    -0.01604917
    136      4      O           0.00039575    -0.00029003    -0.01607902
    137      4      O          -0.00039602     0.00029714    -0.01603964
    138      4      O           0.00053445    -0.00038910    -0.01601256
    139      4      O          -0.00060749     0.00043871    -0.01606607
    140      4      O          -0.00000829     0.00000074    -0.01609732
    141      4      O           0.00020749    -0.00014329    -0.01604234
    142      4      O          -0.00095300     0.00007026    -0.00054426
    143      4      O           0.00006871    -0.00004703    -0.00091832
    144      4      O          -0.00045810     0.00022289    -0.00067726
    145      4      O           0.00067400    -0.00015927    -0.00100311
    146      4      O           0.00087890     0.00039336    -0.00072152
    147      4      O          -0.00053748    -0.00021419    -0.00065150
    148      4      O           0.00027235    -0.00012459    -0.00073853
    149      4      O           0.00099144    -0.00036836    -0.00095977
    150      4      O          -0.00092830     0.00025290    -0.00064147
    151      4      O          -0.00076829     0.00041835    -0.00028842
    152      4      O           0.00024403    -0.00029869    -0.00047817
    153      4      O          -0.00047317     0.00039761    -0.00044634
    154      4      O           0.00083088    -0.00044207    -0.00035411
    155      4      O           0.00059635    -0.00017876    -0.00051466
    156      4      O           0.00000974    -0.00003980    -0.00051143
    157      4      O          -0.00057435     0.00023338    -0.00048490
    158      4      O           0.00048730    -0.00047700    -0.00055994
    159      4      O          -0.00033663     0.00030424    -0.00059769
    160      4      O          -0.00022898     0.00010520     0.00479489
    161      4      O           0.00063286    -0.00041803     0.00500265
    162      4      O          -0.00052423     0.00038977     0.00496226
    163      4      O           0.00036683    -0.00028889     0.00513618
    164      4      O          -0.00035959     0.00033365     0.00538171
    165      4      O           0.00053256    -0.00041999     0.00519475
    166      4      O          -0.00063348     0.00045257     0.00497652
    167      4      O          -0.00000770    -0.00000358     0.00500077
    168      4      O           0.00022024    -0.00010953     0.00483475
    169      4      O          -0.00753147    -0.00922982    -0.02565015
    170      4      O           0.00197708     0.00682801     0.00134150
    171      4      O          -0.00168080     0.00439049    -0.01155548
    172      4      O           0.00232696     0.00187997     0.01276082
    173      4      O           0.00042915     0.00756746     0.00777977
    174      4      O           0.00256387     0.00463917    -0.00230317
    175      4      O          -0.00435817     0.00784349    -0.00422764
    176      4      O          -0.00041949     0.00173007     0.01113981
    177      4      O           0.00694758    -0.00929181    -0.02814983
    178      4      O          -0.00155670     0.00070996     0.00593893
    179      4      O           0.00704426     0.00002229     0.00781102
    180      4      O          -0.00239410    -0.00452135     0.00935036
    181      4      O          -0.00272542    -0.00623724     0.01066519
    182      4      O           0.00139571    -0.00539946     0.00586052
    183      4      O           0.00061467     0.00768840    -0.00410687
    184      4      O           0.00050324    -0.00455205     0.00803217
    185      4      O           0.00227790    -0.00517413     0.00636818
    186      4      O          -0.00545113     0.00552459     0.00130249
    187      4      O           0.00054674     0.00197710     0.01468161
    188      4      O           0.00042464    -0.00096243     0.01357994
    189      4      O          -0.00158958     0.00248315     0.01542012
    190      4      O          -0.00001799    -0.00283417     0.01567394
    191      4      O          -0.00025946     0.00012776     0.01664101
    192      4      O           0.00138551    -0.00025006     0.01396999
    193      4      O          -0.00129594     0.00133196     0.01402939
    194      4      O           0.00017581    -0.00240346     0.01412254
    195      4      O           0.00067883     0.00170663     0.01335862
    196      4      O          -0.00532523     0.02825767     0.01883506
    197      4      O          -0.00508355     0.02773363     0.01872015
    198      4      O          -0.00669279     0.02823647     0.01876908
    199      4      O           0.03399180    -0.02706307     0.00587851
    200      4      O           0.03281950    -0.02728437     0.00594004
    201      4      O           0.03228192    -0.02663380     0.00588889
    202      4      O          -0.02823405    -0.01223750    -0.03020915
    203      4      O          -0.02768871    -0.01280946    -0.03015651
    204      4      O          -0.02910215    -0.01235170    -0.03014426
    205      4      O          -0.01367449    -0.01511777    -0.00677047
    206      4      O          -0.01506755    -0.01512375    -0.00678740
    207      4      O          -0.01523307    -0.01478022    -0.00676616
    208      4      O           0.01266732     0.00776520    -0.02540816
    209      4      O           0.01085292     0.00806956    -0.02541321
    210      4      O           0.01167533     0.00756643    -0.02531151
    211      4      O          -0.00962093     0.01204529     0.00027577
    212      4      O          -0.00847507     0.01123431     0.00026799
    213      4      O          -0.00867754     0.01174305     0.00029333
    214      4      O          -0.03655358    -0.00261009    -0.00793497
    215      4      O          -0.03473698    -0.00277569    -0.00788454
    216      4      O          -0.03505216    -0.00283183    -0.00808377
    217      4      O           0.00302273    -0.01520265    -0.00165816
    218      4      O           0.00208875    -0.01440008    -0.00167038
    219      4      O           0.00319078    -0.01490228    -0.00168788
    220      4      O          -0.00748907     0.00061474    -0.00038042
    221      4      O          -0.00724479     0.00101324    -0.00029903
    222      4      O          -0.00619558     0.00029405    -0.00033507
    223      4      O           0.00504089    -0.00269244    -0.00281685
    224      4      O           0.00622276    -0.00288719    -0.00284166
    225      4      O           0.00627619    -0.00344242    -0.00280651
    226      4      O           0.00634770    -0.00407901     0.00580355
    227      4      O           0.00618189    -0.00355829     0.00573773
    228      4      O           0.00730145    -0.00432560     0.00573833
    229      4      O          -0.00336466    -0.00121814     0.00878300
    230      4      O          -0.00193798    -0.00146386     0.00883561
    231      4      O          -0.00233902    -0.00181664     0.00881535
    232      4      O           0.00149357    -0.00035453     0.01075296
    233      4      O           0.00339148    -0.00046265     0.01069903
    234      4      O           0.00179758    -0.00017860     0.01056286
    235      4      O           0.00189413    -0.00153623     0.00460817
    236      4      O           0.00034062    -0.00094026     0.00464452
    237      4      O           0.00093252    -0.00163824     0.00460220
    238      4      O          -0.00035114     0.00501208    -0.01429592
    239      4      O          -0.00221244     0.00526439    -0.01428171
    240      4      O          -0.00115805     0.00542628    -0.01416944
    241      4      O          -0.00027814    -0.00305586     0.00446199
    242      4      O           0.00051666    -0.00368267     0.00447270
    243      4      O          -0.00047429    -0.00289425     0.00449351
    244      4      O          -0.00731110     0.00318216     0.00109646
    245      4      O          -0.00767871     0.00312081     0.00101192
    246      4      O          -0.00837970     0.00382408     0.00099893
    247      4      O           0.00847596    -0.00457210    -0.00175022
    248      4      O           0.00740230    -0.00394315    -0.00170954
    249      4      O           0.00753891    -0.00377836    -0.00173435
    250      4      O           0.00362953     0.00186463    -0.00695265
    251      4      O           0.00374842     0.00174828    -0.00690720
    252      4      O           0.00280398     0.00248698    -0.00687399
    253      4      O          -0.00284449    -0.00310035     0.00769596
    254      4      O          -0.00402162    -0.00246535     0.00743228
    255      4      O          -0.00337059    -0.00235311     0.00750343
    256      4      O           0.00020510    -0.00105922    -0.00676096
    257      4      O          -0.00126957    -0.00086483    -0.00661481
    258      4      O           0.00070979    -0.00100769    -0.00655952
    259      4      O          -0.00074539     0.00153376     0.00581727
    260      4      O           0.00114974     0.00133324     0.00588172
    261      4      O          -0.00007779     0.00196083     0.00593138
    262      4      O          -0.00119347     0.00549845    -0.00386308
    263      4      O           0.00021726     0.00496588    -0.00389114
    264      4      O          -0.00108628     0.00498785    -0.00396736
    265      4      O           0.00087376    -0.00539462     0.00321925
    266      4      O           0.00001693    -0.00508023     0.00317275
    267      4      O           0.00119428    -0.00588956     0.00319203
    268      4      O          -0.00623722     0.00282328     0.00196432
    269      4      O          -0.00597538     0.00276797     0.00226844
    270      4      O          -0.00574199     0.00209663     0.00227024
    271      4      O           0.00620799    -0.00098102    -0.00044848
    272      4      O           0.00750824    -0.00165030    -0.00050982
    273      4      O           0.00748504    -0.00133398    -0.00046364
    274      4      O           0.00230476     0.00149487    -0.00788061
    275      4      O           0.00227937     0.00130257    -0.00801228
    276      4      O           0.00344445     0.00085632    -0.00813057
    277      4      O          -0.00661435     0.00398235    -0.00465972
    278      4      O          -0.00607606     0.00287722    -0.00393265
    279      4      O          -0.00673099     0.00311263    -0.00449900
    280      4      O          -0.00074445     0.00161643    -0.00520408
    281      4      O          -0.00009200     0.00110252    -0.00529022
    282      4      O          -0.00215143     0.00130590    -0.00547944
    283      4      O          -0.00145935     0.00116696    -0.00989738
    284      4      O          -0.00367567     0.00111820    -0.01120707
    285      4      O          -0.00149783     0.00138119    -0.01092273
    286      4      O           0.00033445     0.00239000    -0.00520571
    287      4      O          -0.00074353     0.00303280    -0.00517662
    288      4      O           0.00038035     0.00284729    -0.00536644
    289      4      O           0.00110983    -0.00529085     0.01297060
    290      4      O           0.00216876    -0.00516884     0.01312346
    291      4      O           0.00031391    -0.00476628     0.01116449
    292      4      O          -0.03047861     0.02068093    -0.00502401
    293      4      O          -0.03195435     0.02272350    -0.00425781
    294      4      O          -0.03129532     0.02459013    -0.00313989
    295      4      O           0.00478166    -0.02505321    -0.01892970
    296      4      O           0.00530717    -0.02647282    -0.01815811
    297      4      O           0.00544476    -0.02477123    -0.02144207
    298      4      O           0.01566133     0.01413812     0.00674896
    299      4      O           0.01474987     0.01510360     0.00781229
    300      4      O           0.01254653     0.01349884     0.00684684
    301      4      O           0.02626124     0.02317383     0.03904772
    302      4      O           0.02200120     0.01836671     0.03942147
    303      4      O           0.02562539     0.01061409     0.04139030
    304      4      O           0.00711213    -0.01306367    -0.00189957
    305      4      O           0.00919263    -0.01093409    -0.00072624
    306      4      O           0.00939690    -0.01193913    -0.00060486
    307      4      O          -0.01026185    -0.01188568     0.02727819
    308      4      O          -0.00605649    -0.00806209     0.03272084
    309      4      O          -0.00786297    -0.01405927     0.02666028
    310      4      O          -0.00226530     0.01234310    -0.00002568
    311      4      O          -0.00082299     0.01383854     0.00082447
    312      4      O          -0.00279454     0.01242011    -0.00050537
    313      4      O           0.03301082    -0.00445141     0.00898128
    314      4      O           0.02829706    -0.00241714     0.01079696
    315      4      O           0.03473651    -0.00032311     0.01442885
 SUM OF ATOMIC FORCES           0.00007109    -0.00943407    -0.02677342     0.02838702

 STRESS| Analytical stress tensor [GPa]
 STRESS|                        x                   y                   z
 STRESS|      x       -4.83628104052E+00   3.05986770186E+00  -8.93762661788E-01
 STRESS|      y        3.05986770186E+00  -1.00352942461E+01   4.02800632259E-02
 STRESS|      z       -8.93762661788E-01   4.02800632259E-02  -2.97050297962E+00
 STRESS| 1/3 Trace                                            -5.94735942207E+00
 STRESS| Determinant                                          -1.08552877791E+02

 STRESS| Eigenvectors and eigenvalues of the analytical stress tensor [GPa]
 STRESS|                        1                   2                   3
 STRESS| Eigenvalues  -1.14709233456E+01  -4.01298063050E+00  -2.35817429011E+00
 STRESS|      x          -0.423719282869      0.713326013079     -0.558236480705
 STRESS|      y           0.904476034018      0.366428418981     -0.218296398619
 STRESS|      z          -0.048837211346      0.597407911588      0.800449070185

 -------------------------------------------------------------------------------
 -                                                                             -
 -                                DBCSR STATISTICS                             -
 -                                                                             -
 -------------------------------------------------------------------------------
 COUNTER                                    TOTAL       BLAS       SMM       ACC
 flops    12 x    12 x   666               575424       0.0%    100.0%      0.0%     
 flops    14 x    12 x    12               653184       0.0%    100.0%      0.0%     
 flops    12 x    12 x   654              1130112       0.0%    100.0%      0.0%     
 flops    12 x    12 x   653              2256768       0.0%    100.0%      0.0%     
 flops    26 x    12 x    12              3908736       0.0%    100.0%      0.0%     
 flops    13 x    12 x    12              4515264       0.0%    100.0%      0.0%     
 flops    32 x    12 x   666             29154816       0.0%    100.0%      0.0%     
 flops    12 x    32 x   666             30689280       0.0%    100.0%      0.0%     
 flops    14 x    32 x    12             33965568       0.0%    100.0%      0.0%     
 flops    14 x    12 x    32             33965568       0.0%    100.0%      0.0%     
 flops    32 x    12 x   654             57259008       0.0%    100.0%      0.0%     
 flops    12 x    32 x   654             60272640       0.0%    100.0%      0.0%     
 flops    32 x    12 x   653            114342912       0.0%    100.0%      0.0%     
 flops    12 x    32 x   653            120360960       0.0%    100.0%      0.0%     
 flops    26 x    32 x    12            203254272       0.0%    100.0%      0.0%     
 flops    26 x    12 x    32            203254272       0.0%    100.0%      0.0%     
 flops    13 x    32 x    12            234793728       0.0%    100.0%      0.0%     
 flops    13 x    12 x    32            234793728       0.0%    100.0%      0.0%     
 flops    14 x    12 x    14            943034400       0.0%    100.0%      0.0%     
 flops    78 x   140 x   666           1934543520       0.0%    100.0%      0.0%     
 flops    78 x   140 x   140           1969094400       0.0%    100.0%      0.0%     
 flops    91 x   140 x   666           2256967440       0.0%    100.0%      0.0%     
 flops    91 x   140 x   140           2297276800       0.0%    100.0%      0.0%     
 flops   104 x   140 x   666           2579391360       0.0%    100.0%      0.0%     
 flops   104 x   140 x   140           2625459200       0.0%    100.0%      0.0%     
 flops   106 x   140 x   666           2628995040       0.0%    100.0%      0.0%     
 flops   106 x   140 x   140           2675948800       0.0%    100.0%      0.0%     
 flops    14 x    14 x   140           2800526400       0.0%    100.0%      0.0%     
 flops    32 x    32 x   666           3191685120       0.0%    100.0%      0.0%     
 flops   130 x   140 x   666           3224239200       0.0%    100.0%      0.0%     
 flops   130 x   140 x   140           3281824000       0.0%    100.0%      0.0%     
 flops    13 x    12 x    14           3544741200       0.0%    100.0%      0.0%     
 flops    14 x    12 x    13           3544741200       0.0%    100.0%      0.0%     
 flops    14 x    32 x    32           3622993920       0.0%    100.0%      0.0%     
 flops    26 x    12 x    14           3668464800       0.0%    100.0%      0.0%     
 flops    14 x    12 x    26           3668464800       0.0%    100.0%      0.0%     
 flops    78 x   140 x   654           3799373760       0.0%    100.0%      0.0%     
 flops   157 x   140 x   666           3893888880       0.0%    100.0%      0.0%     
 flops   157 x   140 x   140           3963433600       0.0%    100.0%      0.0%     
 flops    91 x   140 x   654           4432602720       0.0%    100.0%      0.0%     
 flops   104 x   140 x   654           5065831680       0.0%    100.0%      0.0%     
 flops   106 x   140 x   654           5163251520       0.0%    100.0%      0.0%     
 flops    32 x    32 x   654           6268354560       0.0%    100.0%      0.0%     
 flops   130 x   140 x   654           6332289600       0.0%    100.0%      0.0%     
 flops   144 x   140 x   666           7142929920       0.0%    100.0%      0.0%     
 flops   144 x   140 x   140           7270502400       0.0%    100.0%      0.0%     
 flops    78 x   140 x   653           7587128640       0.0%    100.0%      0.0%     
 flops   157 x   140 x   654           7647457440       0.0%    100.0%      0.0%     
 flops   156 x   140 x   666           7738174080       0.0%    100.0%      0.0%     
 flops   156 x   140 x   140           7876377600       0.0%    100.0%      0.0%     
 flops    91 x   140 x   653           8851650080       0.0%    100.0%      0.0%     
 flops   104 x   140 x   653          10116171520       0.0%    100.0%      0.0%     
 flops    13 x    14 x   140          10309768560       0.0%    100.0%      0.0%     
 flops   106 x   140 x   653          10310713280       0.0%    100.0%      0.0%     
 flops    14 x    13 x   140          10370461920       0.0%    100.0%      0.0%     
 flops    14 x    26 x   140          10610483520       0.0%    100.0%      0.0%     
 flops    26 x    14 x   140          10651149600       0.0%    100.0%      0.0%     
 flops    32 x    32 x   653          12517539840       0.0%    100.0%      0.0%     
 flops   130 x   140 x   653          12645214400       0.0%    100.0%      0.0%     
 flops   144 x   140 x   654          14028456960       0.0%    100.0%      0.0%     
 flops   156 x   140 x   654          15197495040       0.0%    100.0%      0.0%     
 flops   157 x   140 x   653          15271528160       0.0%    100.0%      0.0%     
 flops    78 x   160 x   666          15476348160       0.0%    100.0%      0.0%     
 flops    78 x   140 x   160          15752755200       0.0%    100.0%      0.0%     
 flops    78 x   160 x   140          15752755200       0.0%    100.0%      0.0%     
 flops    91 x   160 x   666          18055739520       0.0%    100.0%      0.0%     
 flops    91 x   160 x   140          18378214400       0.0%    100.0%      0.0%     
 flops    91 x   140 x   160          18378214400       0.0%    100.0%      0.0%     
 flops   104 x   160 x   666          20635130880       0.0%    100.0%      0.0%     
 flops   104 x   140 x   160          21003673600       0.0%    100.0%      0.0%     
 flops   104 x   160 x   140          21003673600       0.0%    100.0%      0.0%     
 flops   106 x   160 x   666          21031960320       0.0%    100.0%      0.0%     
 flops   170 x   140 x   666          21081564000       0.0%    100.0%      0.0%     
 flops    13 x    12 x    13          21084406200       0.0%    100.0%      0.0%     
 flops   106 x   140 x   160          21407590400       0.0%    100.0%      0.0%     
 flops   106 x   160 x   140          21407590400       0.0%    100.0%      0.0%     
 flops   170 x   140 x   140          21458080000       0.0%    100.0%      0.0%     
 flops    26 x    32 x    32          21680455680       0.0%    100.0%      0.0%     
 flops    64 x   140 x   140          22358425600       0.0%    100.0%      0.0%     
 flops    14 x    14 x   160          22404211200       0.0%    100.0%      0.0%     
 flops   183 x   140 x   666          22693683600       0.0%    100.0%      0.0%     
 flops   183 x   140 x   140          23098992000       0.0%    100.0%      0.0%     
 flops    13 x    32 x    32          25044664320       0.0%    100.0%      0.0%     
 flops   130 x   160 x   666          25793913600       0.0%    100.0%      0.0%     
 flops   130 x   140 x   160          26254592000       0.0%    100.0%      0.0%     
 flops   130 x   160 x   140          26254592000       0.0%    100.0%      0.0%     
 flops    26 x    12 x    13          26332363200       0.0%    100.0%      0.0%     
 flops    13 x    12 x    26          26332363200       0.0%    100.0%      0.0%     
 flops    26 x    12 x    26          27978693600       0.0%    100.0%      0.0%     
 flops   144 x   140 x   653          28014013440       0.0%    100.0%      0.0%     
 flops   156 x   140 x   653          30348514560       0.0%    100.0%      0.0%     
 flops    78 x   160 x   654          30394990080       0.0%    100.0%      0.0%     
 flops    32 x   140 x   140          30742835200       0.0%    100.0%      0.0%     
 flops   157 x   160 x   666          31151111040       0.0%    100.0%      0.0%     
 flops   157 x   140 x   160          31707468800       0.0%    100.0%      0.0%     
 flops   157 x   160 x   140          31707468800       0.0%    100.0%      0.0%     
 flops    91 x   160 x   654          35460821760       0.0%    100.0%      0.0%     
 flops   104 x   160 x   654          40526653440       0.0%    100.0%      0.0%     
 flops   106 x   160 x   654          41306012160       0.0%    100.0%      0.0%     
 flops   170 x   140 x   654          41403432000       0.0%    100.0%      0.0%     
 flops   183 x   140 x   654          44569576800       0.0%    100.0%      0.0%     
 flops    64 x   140 x   666          49362001920       0.0%    100.0%      0.0%     
 flops   130 x   160 x   654          50658316800       0.0%    100.0%      0.0%     
 flops   144 x   160 x   666          57143439360       0.0%    100.0%      0.0%     
 flops   144 x   160 x   140          58164019200       0.0%    100.0%      0.0%     
 flops   144 x   140 x   160          58164019200       0.0%    100.0%      0.0%     
 flops    78 x   160 x   653          60697029120       0.0%    100.0%      0.0%     
 flops   157 x   160 x   654          61179659520       0.0%    100.0%      0.0%     
 flops   156 x   160 x   666          61905392640       0.0%    100.0%      0.0%     
 flops    13 x    13 x   140          62546014440       0.0%    100.0%      0.0%     
 flops   156 x   140 x   160          63011020800       0.0%    100.0%      0.0%     
 flops   156 x   160 x   140          63011020800       0.0%    100.0%      0.0%     
 flops    32 x   140 x   666          67872752640       0.0%    100.0%      0.0%     
 flops    91 x   160 x   653          70813200640       0.0%    100.0%      0.0%     
 flops    13 x    26 x   140          76138258560       0.0%    100.0%      0.0%     
 flops    26 x    13 x   140          76287884400       0.0%    100.0%      0.0%     
 flops   104 x   160 x   653          80929372160       0.0%    100.0%      0.0%     
 flops    26 x    26 x   140          81600879360       0.0%    100.0%      0.0%     
 flops    13 x    14 x   160          82478148480       0.0%    100.0%      0.0%     
 flops   106 x   160 x   653          82485706240       0.0%    100.0%      0.0%     
 flops   170 x   140 x   653          82680248000       0.0%    100.0%      0.0%     
 flops    14 x    13 x   160          82963695360       0.0%    100.0%      0.0%     
 flops    14 x    26 x   160          84883868160       0.0%    100.0%      0.0%     
 flops    26 x    14 x   160          85209196800       0.0%    100.0%      0.0%     
 flops   183 x   140 x   653          89002855200       0.0%    100.0%      0.0%     
 flops    64 x   140 x   654          96945192960       0.0%    100.0%      0.0%     
 flops    14 x    32 x    14          98075577600       0.0%    100.0%      0.0%     
 flops   130 x   160 x   653         101161715200       0.0%    100.0%      0.0%     
 flops   144 x   160 x   654         112227655680       0.0%    100.0%      0.0%     
 flops   156 x   160 x   654         121579960320       0.0%    100.0%      0.0%     
 flops   157 x   160 x   653         122172225280       0.0%    100.0%      0.0%     
 flops    78 x   160 x   160         126022041600       0.0%    100.0%      0.0%     
 flops    32 x   140 x   654         133299640320       0.0%    100.0%      0.0%     
 flops    91 x   160 x   160         147025715200       0.0%    100.0%      0.0%     
 flops   104 x   160 x   160         168029388800       0.0%    100.0%      0.0%     
 flops   170 x   160 x   666         168652512000       0.0%    100.0%      0.0%     
 flops   106 x   160 x   160         171260723200       0.0%    100.0%      0.0%     
 flops   170 x   140 x   160         171664640000       0.0%    100.0%      0.0%     
 flops   170 x   160 x   140         171664640000       0.0%    100.0%      0.0%     
 flops    64 x   160 x   140         178867404800       0.0%    100.0%      0.0%     
 flops    64 x   140 x   160         178867404800       0.0%    100.0%      0.0%     
 flops   183 x   160 x   666         181549468800       0.0%    100.0%      0.0%     
 flops   183 x   160 x   140         184791936000       0.0%    100.0%      0.0%     
 flops   183 x   140 x   160         184791936000       0.0%    100.0%      0.0%     
 flops    64 x   140 x   653         193593917440       0.0%    100.0%      0.0%     
 flops   130 x   160 x   160         210036736000       0.0%    100.0%      0.0%     
 flops   144 x   160 x   653         224112107520       0.0%    100.0%      0.0%     
 flops   156 x   160 x   653         242788116480       0.0%    100.0%      0.0%     
 flops    32 x   160 x   140         245942681600       0.0%    100.0%      0.0%     
 flops    32 x   140 x   160         245942681600       0.0%    100.0%      0.0%     
 flops   157 x   160 x   160         253659750400       0.0%    100.0%      0.0%     
 flops    32 x   140 x   653         266191636480       0.0%    100.0%      0.0%     
 flops   170 x   160 x   654         331227456000       0.0%    100.0%      0.0%     
 flops   183 x   160 x   654         356556614400       0.0%    100.0%      0.0%     
 flops    13 x    32 x    14         368653084800       0.0%    100.0%      0.0%     
 flops    14 x    32 x    13         368653084800       0.0%    100.0%      0.0%     
 flops    26 x    32 x    14         381520339200       0.0%    100.0%      0.0%     
 flops    14 x    32 x    26         381520339200       0.0%    100.0%      0.0%     
 flops    64 x   160 x   666         394896015360       0.0%    100.0%      0.0%     
 flops   144 x   160 x   160         465312153600       0.0%    100.0%      0.0%     
 flops    13 x    13 x   160         500368115520       0.0%    100.0%      0.0%     
 flops   156 x   160 x   160         504088166400       0.0%    100.0%      0.0%     
 flops    32 x   160 x   666         542982021120       0.0%    100.0%      0.0%     
 flops    13 x    26 x   160         609106068480       0.0%    100.0%      0.0%     
 flops    26 x    13 x   160         610303075200       0.0%    100.0%      0.0%     
 flops    26 x    26 x   160         652807034880       0.0%    100.0%      0.0%     
 flops   170 x   160 x   653         661441984000       0.0%    100.0%      0.0%     
 flops   183 x   160 x   653         712022841600       0.0%    100.0%      0.0%     
 flops    64 x   160 x   654         775561543680       0.0%    100.0%      0.0%     
 flops    32 x   160 x   654        1066397122560       0.0%    100.0%      0.0%     
 flops   170 x   160 x   160        1373317120000       0.0%    100.0%      0.0%     
 flops    64 x   160 x   160        1430939238400       0.0%    100.0%      0.0%     
 flops   183 x   160 x   160        1478335488000       0.0%    100.0%      0.0%     
 flops    64 x   160 x   653        1548751339520       0.0%    100.0%      0.0%     
 flops    32 x   160 x   160        1967541452800       0.0%    100.0%      0.0%     
 flops    32 x   160 x   653        2129533091840       0.0%    100.0%      0.0%     
 flops    13 x    32 x    13        2192778244800       0.0%    100.0%      0.0%     
 flops    26 x    32 x    13        2738565772800       0.0%    100.0%      0.0%     
 flops    13 x    32 x    26        2738565772800       0.0%    100.0%      0.0%     
 flops    26 x    32 x    26        2909784134400       0.0%    100.0%      0.0%     
 flops inhomo. stacks              13009063071840     100.0%      0.0%      0.0%
 flops total                        50.873055E+12      25.6%     74.4%      0.0%
 flops max/rank                      1.793872E+12      27.6%     72.4%      0.0%
 matmuls inhomo. stacks                    848940     100.0%      0.0%      0.0%
 matmuls total                          681765056       0.1%     99.9%      0.0%
 number of processed stacks              11995733       7.1%     92.9%      0.0%
 average stack size                                     1.0      61.1       0.0
 marketing flops                    61.781406E+12
 -------------------------------------------------------------------------------
 # multiplications                           2830
 max memory usage/rank               1.325646E+09
 # max total images/rank                        2
 # max 3D layers                                1
 # MPI messages exchanged                 1177280
 MPI messages size (bytes):
  total size                         1.297454E+12
  min size                           0.000000E+00
  max size                           7.048856E+06
  average size                       1.102078E+06
 MPI breakdown and total messages size (bytes):
             size <=      128                1752                        0
       128 < size <=     8192                   0                        0
      8192 < size <=    32768                   0                        0
     32768 < size <=   131072                  72                  2885760
    131072 < size <=  4194304             1084064             818697922560
   4194304 < size <= 16777216               91392             478747148432
  16777216 < size                               0                        0
 -------------------------------------------------------------------------------

 *** WARNING in dbcsr_mm.F:301 :: Using a non-square number of MPI ranks ***
 *** might lead to poor performance. Used ranks: 32 Suggested: 36 64     ***

 -------------------------------------------------------------------------------
 -                                                                             -
 -                      DBCSR MESSAGE PASSING PERFORMANCE                      -
 -                                                                             -
 -------------------------------------------------------------------------------
 ROUTINE             CALLS      AVE VOLUME [Bytes]
 MP_Bcast              181                     12.
 MP_Allreduce        15653                     43.
 MP_Alltoall          9295                 109397.
 MP_ISend            88208                 479612.
 MP_IRecv            88208                 476884.
 -------------------------------------------------------------------------------

 -------------------------------------------------------------------------------
 -                                                                             -
 -                                DBM STATISTICS                               -
 -                                                                             -
 -------------------------------------------------------------------------------
    M  x    N  x    K                                          COUNT     PERCENT
 -------------------------------------------------------------------------------

 -------------------------------------------------------------------------------
 -                                                                             -
 -                                GRID STATISTICS                              -
 -                                                                             -
 -------------------------------------------------------------------------------
 LP    KERNEL             BACKEND                              COUNT     PERCENT
 5     collocate general  CPU                               24864062      24.48%
 5     integrate general  CPU                               24674260      24.29%
 4     collocate general  CPU                               15301324      15.07%
 4     integrate general  CPU                               15184520      14.95%
 6     collocate general  CPU                               10606153      10.44%
 6     integrate general  CPU                               10525190      10.36%
 8     integrate general  CPU                                 189802       0.19%
 7     integrate general  CPU                                 116804       0.12%
 9     integrate general  CPU                                  80963       0.08%
 0     collocate general  CPU                                  10080       0.01%
 3     integrate general  CPU                                  10080       0.01%
 -------------------------------------------------------------------------------

 MEMORY| Estimated peak process memory [MiB]                                1265

 -------------------------------------------------------------------------------
 -                                                                             -
 -                         MESSAGE PASSING PERFORMANCE                         -
 -                                                                             -
 -------------------------------------------------------------------------------

 ROUTINE             CALLS      AVE VOLUME [Bytes]
 MP_Group                5
 MP_Bcast            10647                 112718.
 MP_Allreduce        28160                   1636.
 MP_Sync               125
 MP_Alltoall          3163               24025288.
 MP_SendRecv         12183                 105896.
 MP_ISendRecv        12183                 105896.
 MP_Wait             34275
 MP_ISend            19988                 482155.
 MP_IRecv            19988                 482155.
 -------------------------------------------------------------------------------


 -------------------------------------------------------------------------------
 -                                                                             -
 -                           R E F E R E N C E S                               -
 -                                                                             -
 -------------------------------------------------------------------------------
 
 CP2K version 2024.3, the CP2K developers group (2024).
 CP2K is freely available from https://www.cp2k.org/ .
 
 T. D. Kuehne, M. Iannuzzi, M. Del Ben, V. V. Rybkin, P. Seewald, F. Stein, T. 
 Laino, R. Z. Khaliullin, O. Schuett, F. Schiffmann, D. Golze, J. Wilhelm, S. 
 Chulkov, M. H. Bani-Hashemian, V. Weber, U. Borstnik, M. Taillefumier, A. S. 
 Jakobovits, A. Lazzaro, H. Pabst, T. Mueller, R. Schade, M. Guidon, S. 
 Andermatt, N. Holmberg, G. K. Schenter, A. Hehn, A. Bussy, F. Belleflamme, G. 
 Tabacchi, A. Gloess, M. Lass, I. Bethune, C. J. Mundy, C. Plessl, M. Watkins, 
 J. VandeVondele, M. Krack, J. Hutter.
 J. Chem. Phys. 152, 194103 (2020).
 CP2K: An electronic structure and molecular dynamics software package - 
 Quickstep: Efficient and accurate electronic structure calculations.
 https://doi.org/10.1063/5.0007045

 O. Schuett, P. Messmer, J. Hutter, J. VandeVondele.
 Electronic Structure Calculations on Graphics Processing Units, 173-190 (2016).
 GPU-Accelerated Sparse Matrix-Matrix Multiplication for Linear Scaling Density 
 Functional Theory.
 https://doi.org/10.1002/9781118670712.ch8

 A. Heinecke, G. Henry, M. Hutchinson, H. Pabst.
 Proceedings of Intl. Supercomputing Conference, 981-991 (2016).
 LIBXSMM: Accelerating Small Matrix Multiplications by Runtime Code Generation.
 https://doi.org/10.1109/SC.2016.83

 J. Hutter, M. Iannuzzi, F. Schiffmann, J. VandeVondele.
 WIREs Comput Mol Sci. 4, 15-25 (2014).
 CP2K: atomistic simulations of condensed matter systems.
 https://doi.org/10.1002/wcms.1159

 U. Borstnik, J. VandeVondele, V. Weber, J. Hutter.
 Parallel Comput. 40, 47-58 (2014).
 Sparse matrix multiplication: The distributed block-compressed sparse row 
 library.
 https://doi.org/10.1016/j.parco.2014.03.012

 A. Marek, V. Blum, R. Johanni, V. Havu, B. Lang, T. Auckenthaler, A. Heinecke, 
 H. Bungartz, H. Lederer.
 J. Phys. Condens. Matter 26, 213201 (2014).
 The ELPA library: scalable parallel eigenvalue solutions for electronic 
 structure theory and computational science.
 https://doi.org/10.1088/0953-8984/26/21/213201

 J. P. Perdew, A. Ruzsinszky, G. I. Csonka, O. A. Vydrov, G. E. Scuseria, L. A. 
 Constantin, X. Zhou, K. Burke.
 Phys. Rev. Lett. 100, 136406-136409 (2008).
 Restoring the Density-Gradient Expansion for Exchange in Solids and Surfaces.
 https://doi.org/10.1103/PhysRevLett.100.136406

 J. VandeVondele, J. Hutter.
 J. Chem. Phys. 127, 114105 (2007).
 Gaussian basis sets for accurate calculations on molecular systems in gas and 
 condensed phases.
 https://doi.org/10.1063/1.2770708

 J. VandeVondele, M. Krack, F. Mohamed, M. Parrinello, T. Chassaing, J. Hutter.
 Comput. Phys. Commun. 167, 103-128 (2005).
 QUICKSTEP: Fast and accurate density functional calculations using a mixed 
 Gaussian and plane waves approach.
 https://doi.org/10.1016/j.cpc.2004.12.014

 M. Krack.
 Theor. Chem. Acc. 114, 145-152 (2005).
 Pseudopotentials for H to Kr optimized for gradient-corrected 
 exchange-correlation functionals.
 https://doi.org/10.1007/s00214-005-0655-y

 M. Frigo, S. G. Johnson.
 Proc. IEEE 93, 216-231 (2005).
 The design and implementation of FFTW3.
 https://doi.org/10.1109/JPROC.2004.840301

 J. VandeVondele, J. Hutter.
 J. Chem. Phys. 118, 4365-4369 (2003).
 An efficient orbital transformation method for electronic structure 
 calculations.
 https://doi.org/10.1063/1.1543154

 C. Hartwigsen, S. Goedecker, J. Hutter.
 Phys. Rev. B 58, 3641-3662 (1998).
 Relativistic separable dual-space Gaussian pseudopotentials from H to Rn.
 https://doi.org/10.1103/PhysRevB.58.3641

 G. Lippert, J. Hutter, M. Parrinello.
 Mol. Phys. 92, 477-487 (1997).
 A hybrid Gaussian and plane wave density functional scheme.
 https://doi.org/10.1080/002689797170220

 S. Goedecker, M. Teter, J. Hutter.
 Phys. Rev. B 54, 1703-1710 (1996).
 Separable dual-space Gaussian pseudopotentials.
 https://doi.org/10.1103/PhysRevB.54.1703

 J. P. Perdew, K. Burke, M. Ernzerhof.
 Phys. Rev. Lett. 77, 3865-3868 (1996).
 Generalized gradient approximation made simple.
 https://doi.org/10.1103/PhysRevLett.77.3865


 -------------------------------------------------------------------------------
 -                                                                             -
 -                                T I M I N G                                  -
 -                                                                             -
 -------------------------------------------------------------------------------
 SUBROUTINE                       CALLS  ASD         SELF TIME        TOTAL TIME
                                MAXIMUM       AVERAGE  MAXIMUM  AVERAGE  MAXIMUM
 CP2K                                 1  1.0    1.122    1.132  214.517  214.522
 qs_forces                            1  2.0    0.002    0.002  212.754  212.757
 qs_energies                          1  3.0    0.000    0.001  204.546  204.548
 scf_env_do_scf                       1  4.0    0.000    0.000  202.196  202.198
 scf_env_do_scf_inner_loop          130  5.0    0.004    0.013  196.263  196.274
 rebuild_ks_matrix                  131  7.0    0.001    0.001   92.086   92.315
 qs_ks_build_kohn_sham_matrix       131  8.0    0.041    0.045   92.085   92.314
 qs_ks_update_qs_env                133  6.0    0.002    0.002   90.162   90.390
 qs_scf_new_mos                     130  6.0    0.001    0.002   54.705   54.867
 qs_scf_loop_do_ot                  130  7.0    0.001    0.001   54.704   54.866
 qs_rho_update_rho_low              131  6.0    0.001    0.001   54.057   54.171
 calculate_rho_elec                 131  7.0    0.571    0.629   54.056   54.170
 ot_scf_mini                        130  8.0    0.004    0.005   52.053   52.240
 sum_up_and_integrate               131  9.0    0.003    0.003   49.390   49.430
 integrate_v_rspace                 131 10.0    0.005    0.006   49.294   49.328
 grid_collocate_task_list           131  8.0   40.535   41.812   40.535   41.812
 dbcsr_multiply_generic            2830 11.1    0.155    0.175   40.718   41.202
 grid_integrate_task_list           131 11.0   38.162   39.422   38.162   39.422
 fft_wrap_pw1pw2                   2621 11.1    0.050    0.058   34.858   35.246
 fft_wrap_pw1pw2_300               1573 12.6    2.144    2.277   33.302   33.602
 qs_vxc_create                      131  9.0    0.003    0.003   28.977   28.982
 xc_vxc_pw_create                   131 10.0    0.743    0.839   28.975   28.979
 multiply_cannon                   2830 12.1    0.314    0.336   26.606   28.212
 ot_mini                            130  9.0    0.001    0.002   26.521   26.694
 fft3d_ps                          2621 13.1   13.451   14.392   25.739   26.426
 multiply_cannon_loop              2830 13.1    0.176    0.204   23.878   25.042
 multiply_cannon_multrec          22640 14.1   18.156   19.898   18.174   19.916
 xc_pw_derive                       786 12.0    0.006    0.007   19.141   19.663
 qs_ot_get_p                        133  9.0    0.001    0.002   19.000   19.229
 qs_ot_get_derivative               130 10.0    0.002    0.002   16.799   16.977
 xc_rho_set_and_dset_create         131 11.0    0.497    0.523   15.297   15.852
 qs_ot_p2m_diag                     120 10.0    0.486    0.513   15.580   15.623
 density_rs2pw                      131  8.0    0.007    0.007   12.246   14.205
 cp_dbcsr_syevd                     120 11.0    0.011    0.013   13.855   13.860
 cp_fm_diag_elpa                    120 12.0    0.001    0.001   13.476   13.496
 cp_fm_diag_elpa_base               120 13.0   13.362   13.378   13.451   13.451
 xc_pw_divergence                   131 11.0    0.003    0.003   12.686   13.152
 qs_ot_get_derivative_diag          118 11.0    0.004    0.005   11.155   11.315
 mp_alltoall_z22v                  2621 15.1    9.001   10.641    9.001   10.641
 ot_diis_step                       130 10.0    0.007    0.008    9.609    9.610
 make_m2s                          5660 12.1    0.095    0.101    8.915    9.593
 potential_pw2rs                    131 11.0    0.032    0.035    9.497    9.506
 mp_waitall_1                    195407 15.2    6.238    8.122    6.238    8.122
 mp_waitany                       19988 12.5    5.698    8.004    5.698    8.004
 transfer_rs2pw                     656  9.0    0.010    0.011    5.936    7.953
 apply_preconditioner_dbcsr         133 11.0    0.000    0.000    7.451    7.917
 apply_single                       133 12.0    0.001    0.001    7.451    7.917
 x_to_yz                           1310 14.5    2.022    2.360    6.783    7.493
 make_images                       5660 13.1    0.645    0.846    5.836    6.398
 yz_to_x                           1049 13.9    1.194    1.255    5.427    6.319
 transfer_rs2pw_300                 132 10.0    0.917    1.118    4.191    6.273
 build_core_hamiltonian_matrix_       1  3.0    0.000    0.000    4.976    6.117
 init_scf_loop                        3  5.0    0.000    0.000    5.926    5.935
 transfer_pw2rs                     656 12.0    0.006    0.007    5.852    5.857
 build_core_ppnl_forces               1  4.0    4.214    5.356    4.214    5.356
 xc_functional_eval                 131 12.0    0.002    0.003    4.871    5.321
 pbe_lda_eval                       131 13.0    4.869    5.319    4.869    5.319
 mp_sum_d                          7836 11.6    3.499    5.095    3.499    5.095
 calc_dipsurf_potential             131  9.0    0.667    0.721    4.557    4.641
 multiply_cannon_metrocomm3       22640 14.1    0.061    0.066    2.646    4.620
 -------------------------------------------------------------------------------

 The number of warnings for this run is : 1
 
 -------------------------------------------------------------------------------
  **** **** ******  **  PROGRAM ENDED AT                 2026-08-31 15:55:27.312
 ***** ** ***  *** **   PROGRAM RAN ON                                 nid004776
 **    ****   ******    PROGRAM RAN BY                                    agne_r
 ***** **    ** ** **   PROGRAM PROCESS ID                                131533
  **** **  *******  **  PROGRAM STOPPED IN /mnt/lustre/a2fs-work3/work/e89/e89/a
                                           gne_r/Crystalline_HfO2_Interfaces/Cla
                                           ude/HfO2_STO_interfaces/V4_lattice_ma
                                           tches/updated/V4_lattice_matches/STO_
                                           HfO2_m111_pbesol_matches/configs/m03_
                                           A0137_eps2p8
