 DBCSR| CPU Multiplication driver                                           XSMM (U)
 DBCSR| Multrec recursion limit                                              512 (U)
 DBCSR| Multiplication stack size                                           1000 (D)
 DBCSR| Maximum elements for images                                    UNLIMITED (U)
 DBCSR| Multiplicative factor virtual images                                   1 (U)
 DBCSR| Use multiplication densification                                       T (D)
 DBCSR| Multiplication size stacks                                             3 (U)
 DBCSR| Use memory pool for CPU allocation                                     F (U)
 DBCSR| Number of 3D layers                                               SINGLE (U)
 DBCSR| Use MPI memory allocation                                              F (U)
 DBCSR| Use RMA algorithm                                                      F (U)
 DBCSR| Use Communication thread                                               T (U)
 DBCSR| Communication thread load                                             60 (D)
 DBCSR| MPI: My process id                                                     0
 DBCSR| MPI: Number of processes                                              64
 DBCSR| OMP: Current number of threads                                         8
 DBCSR| OMP: Max number of threads                                             8
 DBCSR| Split modifier for TAS multiplication algorithm                  1.0E+00 (U)


  **** **** ******  **  PROGRAM STARTED AT               2026-08-31 15:51:34.630
 ***** ** ***  *** **   PROGRAM STARTED ON                             nid002618
 **    ****   ******    PROGRAM STARTED BY                                agne_r
 ***** **    ** ** **   PROGRAM PROCESS ID                                 93620
  **** **  *******  **  PROGRAM STARTED IN /mnt/lustre/a2fs-work3/work/e89/e89/a
                                           gne_r/Crystalline_HfO2_Interfaces/Cla
                                           ude/HfO2_STO_interfaces/V4_lattice_ma
                                           tches/updated/V4_lattice_matches/STO_
                                           HfO2_m111_pbesol_matches/configs/m05_
                                           A0304_eps1p6

 CP2K| version string:                                       CP2K version 2024.3
 CP2K| source code revision number:                                  git:6712648
 CP2K| cp2kflags: omp libint fftw3 libxc libgrpp elpa parallel scalapack cosma x
 CP2K|            smm plumed2 spglib mkl sirius libvori libbqb libvdwxc hdf5
 CP2K| is freely available from                            https://www.cp2k.org/
 CP2K| Program compiled at                       Thu 12 Sep 2024 10:20:47 AM BST
 CP2K| Program compiled on                                                  ln04
 CP2K| Program compiled for                                                local
 CP2K| Data directory path    /mnt/lustre/a2fs-work1/work/y07/shared/apps/core/c
 CP2K| Input file name                                                  cp2k.inp

 GLOBAL| Force Environment number                                              1
 GLOBAL| Basis set file name                                        BASIS_MOLOPT
 GLOBAL| Potential file name                                      GTH_POTENTIALS
 GLOBAL| MM Potential file name                                     MM_POTENTIAL
 GLOBAL| Coordinate file name                                      interface.cif
 GLOBAL| Method name                                                        CP2K
 GLOBAL| Project name                                           m05_A0304_eps1p6
 GLOBAL| Run type                                                   ENERGY_FORCE
 GLOBAL| FFT library                                                       FFTW3
 GLOBAL| Diagonalization library                                            ELPA
 GLOBAL| DGEMM library                                                      BLAS
 GLOBAL| Minimum number of eigenvectors for ELPA usage                        16
 GLOBAL| Orthonormality check for eigenvectors                          DISABLED
 GLOBAL| Matrix multiplication library                                     COSMA
 GLOBAL| All-to-all communication in single precision                          F
 GLOBAL| FFTs using library dependent lengths                                  T
 GLOBAL| Grid backend                                                       AUTO
 GLOBAL| Global print level                                                  LOW
 GLOBAL| MPI I/O enabled                                                       T
 GLOBAL| Total number of message passing processes                            64
 GLOBAL| Number of threads for this process                                    8
 GLOBAL| This output is from process                                           0
 GLOBAL| Stack size for threads created by OpenMP (OMP_STACKSIZE)        default
 GLOBAL| CPU model name                          AMD EPYC 7742 64-Core Processor
 GLOBAL| CPUID                                                              1002

 MEMORY| system memory details [Kb]
 MEMORY|                        rank 0           min           max       average
 MEMORY| MemTotal            263266816     263266592     263266888     263266787
 MEMORY| MemFree             249011428     249011428     249222912     249148083
 MEMORY| Buffers                192832        112436        192832        140228
 MEMORY| Cached                1209740       1198556       1209740       1203508
 MEMORY| Slab                  3418312       3365856       3466568       3412037
 MEMORY| SReclaimable          1418972       1415780       1432724       1422501
 MEMORY| MemLikelyFree       251832972     251832972     251965576     251914320


 GENERATE|  Preliminary Number of Bonds generated:                             0
 GENERATE|  Achieved consistency in connectivity generation.

 *******************************************************************************
 *******************************************************************************
 **                                                                           **
 **     #####                         ##              ##                      **
 **    ##   ##            ##          ##              ##                      **
 **   ##     ##                       ##            ######                    **
 **   ##     ##  ##   ##  ##   #####  ##  ##   ####   ##    #####    #####    **
 **   ##     ##  ##   ##  ##  ##      ## ##   ##      ##   ##   ##  ##   ##   **
 **   ##  ## ##  ##   ##  ##  ##      ####     ###    ##   ######   ######    **
 **    ##  ###   ##   ##  ##  ##      ## ##      ##   ##   ##       ##        **
 **     #######   #####   ##   #####  ##  ##  ####    ##    #####   ##        **
 **           ##                                                    ##        **
 **                                                                           **
 **                                                ... make the atoms dance   **
 **                                                                           **
 **            Copyright (C) by CP2K developers group (2000-2024)             **
 **                      J. Chem. Phys. 152, 194103 (2020)                    **
 **                                                                           **
 *******************************************************************************


 TOTAL NUMBERS AND MAXIMUM NUMBERS

  Total number of            - Atomic kinds:                                   4
                             - Atoms:                                        780
                             - Shell sets:                                   780
                             - Shells:                                      4620
                             - Primitive Cartesian functions:               4180
                             - Cartesian basis functions:                  14720
                             - Spherical basis functions:                  13060

  Maximum angular momentum of- Orbital basis functions:                        3
                             - Local part of the GTH pseudopotential:          2
                             - Non-local part of the GTH pseudopotential:      4


 SCF PARAMETERS         Density guess:                                    ATOMIC
                        --------------------------------------------------------
                        max_scf:                                              60
                        max_scf_history:                                       0
                        max_diis:                                              4
                        --------------------------------------------------------
                        eps_scf:                                        1.00E-06
                        eps_scf_history:                                0.00E+00
                        eps_diis:                                       1.00E-01
                        eps_eigval:                                     1.00E-05
                        --------------------------------------------------------
                        level_shift [a.u.]:                             0.000000
                        --------------------------------------------------------
                        Outer loop SCF in use 
                        No variables optimised in outer loop
                        eps_scf                                         1.00E-06
                        max_scf                                               25
                        No outer loop optimization
                        step_size                                       5.00E-01

 Number of electrons:                                                       6240
 Number of occupied orbitals:                                               3120
 Number of molecular orbitals:                                              3120

 Number of orbital functions:                                              13060
 Number of independent orbital functions:                                  13060

 Extrapolation method: initial_guess


 SCF WAVEFUNCTION OPTIMIZATION

  ----------------------------------- OT ---------------------------------------
  Minimizer      : DIIS                : direct inversion
                                         in the iterative subspace
                                         using   7 DIIS vectors
                                         safer DIIS on
  Preconditioner : FULL_SINGLE_INVERSE : inversion of 
                                         H + eS - 2*(Sc)(c^T*H*c+const)(Sc)^T
  Precond_solver : DEFAULT
  stepsize       :    0.08000000                  energy_gap     :    0.05000000
  eps_taylor     :   0.10000E-15                  max_taylor     :             4
  ----------------------------------- OT ---------------------------------------

  Step     Update method      Time    Convergence         Total energy    Change
  ------------------------------------------------------------------------------
     1 OT DIIS     0.80E-01    8.3     0.01168233    -20743.6755939763 -2.07E+04
     2 OT DIIS     0.80E-01    3.9     0.27772734    -17943.1603595952  2.80E+03
     3 OT DIIS     0.80E-01    3.9     0.03329155    -20831.9887728862 -2.89E+03
     4 OT DIIS     0.80E-01    3.8     0.02029409    -20902.0938642173 -7.01E+01
     5 OT DIIS     0.80E-01    3.8     0.01098423    -20947.1500174038 -4.51E+01
     6 OT DIIS     0.80E-01    3.8     0.00428924    -21019.7040212589 -7.26E+01
     7 OT DIIS     0.80E-01    3.8     0.01287637    -21055.4411618787 -3.57E+01
     8 OT DIIS     0.80E-01    3.7     0.00688016    -21075.8460313489 -2.04E+01
     9 OT DIIS     0.80E-01    3.7     0.00659272    -21098.3354328746 -2.25E+01
    10 OT DIIS     0.80E-01    3.7     0.00233925    -21128.1490563962 -2.98E+01
    11 OT DIIS     0.80E-01    3.6     0.00310428    -21145.3288459501 -1.72E+01
    12 OT DIIS     0.80E-01    3.6     0.00170220    -21160.3502293780 -1.50E+01
    13 OT DIIS     0.80E-01    3.7     0.00199806    -21174.6861204447 -1.43E+01
    14 OT DIIS     0.80E-01    3.7     0.00146561    -21182.4531936069 -7.77E+00
    15 OT DIIS     0.80E-01    3.6     0.00115397    -21193.5813957203 -1.11E+01
    16 OT DIIS     0.80E-01    3.6     0.00195595    -21201.3928499894 -7.81E+00
    17 OT DIIS     0.80E-01    3.6     0.00118337    -21204.3457899206 -2.95E+00
    18 OT DIIS     0.80E-01    3.7     0.00081196    -21207.9736156128 -3.63E+00
    19 OT DIIS     0.80E-01    3.6     0.00075100    -21212.3220248274 -4.35E+00
    20 OT DIIS     0.80E-01    3.6     0.00068637    -21215.3636785705 -3.04E+00
    21 OT DIIS     0.80E-01    3.7     0.00063143    -21217.3332231268 -1.97E+00
    22 OT DIIS     0.80E-01    3.7     0.00052535    -21219.1830340131 -1.85E+00
    23 OT DIIS     0.80E-01    3.6     0.00047627    -21220.5984169539 -1.42E+00
    24 OT DIIS     0.80E-01    3.6     0.00044785    -21222.5289221749 -1.93E+00
    25 OT DIIS     0.80E-01    3.6     0.00047699    -21222.9648725198 -4.36E-01
    26 OT DIIS     0.80E-01    3.6     0.00037959    -21224.1964341545 -1.23E+00
    27 OT DIIS     0.80E-01    3.6     0.00034829    -21224.9811642463 -7.85E-01
    28 OT DIIS     0.80E-01    3.6     0.00032723    -21225.5574625490 -5.76E-01
    29 OT DIIS     0.80E-01    3.6     0.00030946    -21226.0172179697 -4.60E-01
    30 OT DIIS     0.80E-01    3.6     0.00029467    -21226.5039947236 -4.87E-01
    31 OT DIIS     0.80E-01    3.6     0.00025906    -21226.9760113400 -4.72E-01
    32 OT DIIS     0.80E-01    3.6     0.00023573    -21227.6422160490 -6.66E-01
    33 OT DIIS     0.80E-01    3.6     0.00022908    -21227.8417560572 -2.00E-01
    34 OT DIIS     0.80E-01    3.6     0.00020847    -21228.2581592514 -4.16E-01
    35 OT DIIS     0.80E-01    3.6     0.00020295    -21228.5328032976 -2.75E-01
    36 OT DIIS     0.80E-01    3.6     0.00020032    -21228.8245042271 -2.92E-01
    37 OT DIIS     0.80E-01    3.6     0.00018829    -21229.0207475633 -1.96E-01
    38 OT DIIS     0.80E-01    3.6     0.00017413    -21229.2195018133 -1.99E-01
    39 OT DIIS     0.80E-01    3.6     0.00016196    -21229.3777978098 -1.58E-01
    40 OT DIIS     0.80E-01    3.6     0.00015185    -21229.5862716051 -2.08E-01
    41 OT DIIS     0.80E-01    3.6     0.00014947    -21229.7197637535 -1.33E-01
    42 OT DIIS     0.80E-01    3.6     0.00014158    -21229.8957180028 -1.76E-01
    43 OT DIIS     0.80E-01    3.6     0.00013575    -21230.0302948031 -1.35E-01
    44 OT DIIS     0.80E-01    3.6     0.00013168    -21230.1801739724 -1.50E-01
    45 OT DIIS     0.80E-01    3.6     0.00012720    -21230.2756974844 -9.55E-02
    46 OT DIIS     0.80E-01    3.6     0.00012249    -21230.3753773364 -9.97E-02
    47 OT DIIS     0.80E-01    3.6     0.00011481    -21230.4542217377 -7.88E-02
    48 OT DIIS     0.80E-01    3.5     0.00010915    -21230.5716047907 -1.17E-01
    49 OT DIIS     0.80E-01    3.6     0.00010589    -21230.6407777107 -6.92E-02
    50 OT DIIS     0.80E-01    3.6     0.00010305    -21230.7271998330 -8.64E-02
    51 OT DIIS     0.80E-01    3.5     0.00009767    -21230.7944985803 -6.73E-02
    52 OT DIIS     0.80E-01    3.6     0.00009636    -21230.8803099634 -8.58E-02
    53 OT DIIS     0.80E-01    3.6     0.00009460    -21230.9383936038 -5.81E-02
    54 OT DIIS     0.80E-01    3.6     0.00009191    -21231.0062837706 -6.79E-02
    55 OT DIIS     0.80E-01    3.6     0.00008766    -21231.0544125988 -4.81E-02
    56 OT DIIS     0.80E-01    3.6     0.00008240    -21231.1233288827 -6.89E-02
    57 OT DIIS     0.80E-01    3.6     0.00008060    -21231.1636094376 -4.03E-02
    58 OT DIIS     0.80E-01    3.6     0.00007768    -21231.2107389135 -4.71E-02
    59 OT DIIS     0.80E-01    3.5     0.00007565    -21231.2531750952 -4.24E-02
    60 OT DIIS     0.80E-01    3.6     0.00007379    -21231.3100588027 -5.69E-02

  Leaving inner SCF loop after reaching    60 steps.


  Electronic density on regular grids:      -6239.9999994042        0.0000005958
  Core density on regular grids:             6239.9999996105       -0.0000003895
  Total dipole moment perpendicular to 
  the slab [electrons-Angstroem]:               4.5682121933
  Total charge density on r-space grids:        0.0000002063
  Total charge density g-space grids:           0.0000002063

  Overlap energy of the core charge distribution:               0.00025087414793
  Self energy of the core charge distribution:             -42309.41889464936685
  Core Hamiltonian energy:                                  10913.19417556252665
  Hartree energy:                                           13604.43976075745377
  Exchange-correlation energy:                              -3439.52535134741993

  Total energy:                                            -21231.31005880266093

  outer SCF iter =    1 RMS gradient =   0.74E-04 energy =     -21231.3100588027

  ----------------------------------- OT ---------------------------------------
  Minimizer      : DIIS                : direct inversion
                                         in the iterative subspace
                                         using   7 DIIS vectors
                                         safer DIIS on
  Preconditioner : FULL_SINGLE_INVERSE : inversion of 
                                         H + eS - 2*(Sc)(c^T*H*c+const)(Sc)^T
  Precond_solver : DEFAULT
  stepsize       :    0.08000000                  energy_gap     :    0.05000000
  eps_taylor     :   0.10000E-15                  max_taylor     :             4
  ----------------------------------- OT ---------------------------------------

  Step     Update method      Time    Convergence         Total energy    Change
  ------------------------------------------------------------------------------
     1 OT DIIS     0.80E-01   11.8     0.00027304    -21231.3495239192 -3.95E-02
     2 OT DIIS     0.80E-01    3.8     0.00022714    -21231.5505858327 -2.01E-01
     3 OT DIIS     0.80E-01    3.8     0.00024450    -21231.6674303729 -1.17E-01
     4 OT DIIS     0.80E-01    3.7     0.00026336    -21231.7848142548 -1.17E-01
     5 OT DIIS     0.80E-01    3.7     0.00019293    -21231.8908935743 -1.06E-01
     6 OT DIIS     0.80E-01    3.7     0.00016219    -21231.9719461489 -8.11E-02
     7 OT DIIS     0.80E-01    3.7     0.00013556    -21232.0265734233 -5.46E-02
     8 OT DIIS     0.80E-01    3.7     0.00011567    -21232.0683818503 -4.18E-02
     9 OT DIIS     0.80E-01    3.6     0.00011049    -21232.0939761595 -2.56E-02
    10 OT DIIS     0.80E-01    3.6     0.00009657    -21232.1153112062 -2.13E-02
    11 OT DIIS     0.80E-01    3.6     0.00008580    -21232.1397814435 -2.45E-02
    12 OT DIIS     0.80E-01    3.6     0.00008495    -21232.1675981468 -2.78E-02
    13 OT DIIS     0.80E-01    3.6     0.00008090    -21232.1871567412 -1.96E-02
    14 OT DIIS     0.80E-01    3.6     0.00005960    -21232.1989192044 -1.18E-02
    15 OT DIIS     0.80E-01    3.6     0.00004859    -21232.2025789125 -3.66E-03
    16 OT DIIS     0.80E-01    3.6     0.00003778    -21232.2050515159 -2.47E-03
    17 OT DIIS     0.80E-01    3.6     0.00003332    -21232.2071206034 -2.07E-03
    18 OT DIIS     0.80E-01    3.6     0.00002895    -21232.2094205238 -2.30E-03
    19 OT DIIS     0.80E-01    3.6     0.00002453    -21232.2119525923 -2.53E-03
    20 OT DIIS     0.80E-01    3.6     0.00001817    -21232.2144520114 -2.50E-03
    21 OT DIIS     0.80E-01    3.7     0.00001507    -21232.2157029027 -1.25E-03
    22 OT DIIS     0.80E-01    3.6     0.00001436    -21232.2168833412 -1.18E-03
    23 OT DIIS     0.80E-01    3.6     0.00001386    -21232.2178019217 -9.19E-04
    24 OT DIIS     0.80E-01    3.6     0.00001290    -21232.2184698552 -6.68E-04
    25 OT DIIS     0.80E-01    3.6     0.00001055    -21232.2188713389 -4.01E-04
    26 OT DIIS     0.80E-01    3.6     0.00000819    -21232.2190594936 -1.88E-04
    27 OT DIIS     0.80E-01    3.6     0.00000688    -21232.2192139433 -1.54E-04
    28 OT DIIS     0.80E-01    3.6     0.00000598    -21232.2193989912 -1.85E-04
    29 OT DIIS     0.80E-01    3.6     0.00000551    -21232.2195661277 -1.67E-04
    30 OT DIIS     0.80E-01    3.6     0.00000486    -21232.2197420919 -1.76E-04
    31 OT DIIS     0.80E-01    3.6     0.00000422    -21232.2198331514 -9.11E-05
    32 OT DIIS     0.80E-01    3.6     0.00000388    -21232.2199005307 -6.74E-05
    33 OT DIIS     0.80E-01    3.6     0.00000368    -21232.2199514968 -5.10E-05
    34 OT DIIS     0.80E-01    3.6     0.00000358    -21232.2199891872 -3.77E-05
    35 OT DIIS     0.80E-01    3.6     0.00000331    -21232.2200268189 -3.76E-05
    36 OT DIIS     0.80E-01    3.6     0.00000275    -21232.2200524798 -2.57E-05
    37 OT DIIS     0.80E-01    3.5     0.00000222    -21232.2200688745 -1.64E-05
    38 OT DIIS     0.80E-01    3.6     0.00000189    -21232.2200830832 -1.42E-05
    39 OT DIIS     0.80E-01    3.6     0.00000175    -21232.2200929942 -9.91E-06
    40 OT DIIS     0.80E-01    3.6     0.00000168    -21232.2201055095 -1.25E-05
    41 OT DIIS     0.80E-01    3.6     0.00000165    -21232.2201182375 -1.27E-05
    42 OT DIIS     0.80E-01    3.6     0.00000159    -21232.2201270668 -8.83E-06
    43 OT DIIS     0.80E-01    3.6     0.00000143    -21232.2201337412 -6.67E-06
    44 OT DIIS     0.80E-01    3.6     0.00000123    -21232.2201383008 -4.56E-06
    45 OT DIIS     0.80E-01    3.6     0.00000112    -21232.2201424205 -4.12E-06
    46 OT DIIS     0.80E-01    3.6     0.00000104    -21232.2201470876 -4.67E-06
    47 OT DIIS     0.80E-01    3.5     0.00000098    -21232.2201512663 -4.18E-06

  *** SCF run converged in    47 steps ***


  Electronic density on regular grids:      -6239.9999994046        0.0000005954
  Core density on regular grids:             6239.9999996105       -0.0000003895
  Total dipole moment perpendicular to 
  the slab [electrons-Angstroem]:               5.2285736868
  Total charge density on r-space grids:        0.0000002059
  Total charge density g-space grids:           0.0000002059

  Overlap energy of the core charge distribution:               0.00025087414793
  Self energy of the core charge distribution:             -42309.41889464936685
  Core Hamiltonian energy:                                  10910.77866714986885
  Hartree energy:                                           13605.99744077306241
  Exchange-correlation energy:                              -3439.57761541403261

  Total energy:                                            -21232.22015126632323

  outer SCF iter =    2 RMS gradient =   0.98E-06 energy =     -21232.2201512663
  outer SCF loop converged in   2 iterations or  107 steps


 ENERGY| Total FORCE_EVAL ( QS ) energy [a.u.]:           -21232.220156160372426

 ATOMIC FORCES in [a.u.]

 # Atom   Kind   Element          X              Y              Z
      1      1      Sr          0.00002718     0.00002384     0.02951788
      2      1      Sr         -0.00001430    -0.00001728     0.02951558
      3      1      Sr         -0.00001970     0.00002665     0.02951594
      4      1      Sr          0.00002008     0.00007269     0.02953596
      5      1      Sr         -0.00005602    -0.00008427     0.02952842
      6      1      Sr         -0.00003366    -0.00005590     0.02951949
      7      1      Sr          0.00000374     0.00003706     0.02950745
      8      1      Sr          0.00000775     0.00005699     0.02953429
      9      1      Sr         -0.00003326    -0.00005737     0.02952475
     10      1      Sr          0.00003119     0.00003052     0.02952343
     11      1      Sr         -0.00002477    -0.00008406     0.02952507
     12      1      Sr          0.00001209     0.00003017     0.02950717
     13      1      Sr          0.00001427     0.00004438     0.02952772
     14      1      Sr         -0.00000167    -0.00003048     0.02952780
     15      1      Sr          0.00003538     0.00001905     0.02952760
     16      1      Sr          0.00002425     0.00001257     0.02951032
     17      1      Sr          0.00000555     0.00003298     0.02952200
     18      1      Sr         -0.00001926     0.00000428     0.02952853
     19      1      Sr          0.00003562     0.00004392     0.02953661
     20      1      Sr         -0.00002410    -0.00010463     0.02952689
     21      1      Sr          0.00012313     0.00015240     0.00244539
     22      1      Sr         -0.00006494    -0.00007616     0.00247530
     23      1      Sr         -0.00007585     0.00003531     0.00241258
     24      1      Sr          0.00010413     0.00028907     0.00257151
     25      1      Sr         -0.00022152    -0.00033275     0.00254588
     26      1      Sr         -0.00010758    -0.00023707     0.00245325
     27      1      Sr          0.00006657     0.00008631     0.00239574
     28      1      Sr          0.00005368     0.00020125     0.00254401
     29      1      Sr         -0.00016078    -0.00027117     0.00249074
     30      1      Sr          0.00012891     0.00022469     0.00245685
     31      1      Sr         -0.00012397    -0.00029620     0.00250736
     32      1      Sr          0.00002656     0.00014067     0.00241394
     33      1      Sr          0.00005072     0.00011855     0.00252397
     34      1      Sr         -0.00000663    -0.00016524     0.00252919
     35      1      Sr          0.00018067     0.00013912     0.00256675
     36      1      Sr          0.00009986     0.00009326     0.00241704
     37      1      Sr          0.00002087     0.00009683     0.00253423
     38      1      Sr         -0.00011115    -0.00004549     0.00255041
     39      1      Sr          0.00011315     0.00021334     0.00261597
     40      1      Sr         -0.00009788    -0.00036574     0.00254192
     41      1      Sr          0.00058593     0.00055142     0.01485934
     42      1      Sr         -0.00035808     0.00015615     0.01334341
     43      1      Sr         -0.00080580     0.00007613     0.01475389
     44      1      Sr          0.00088325     0.00115966     0.01357576
     45      1      Sr         -0.00133813    -0.00137400     0.01406372
     46      1      Sr         -0.00058138    -0.00078410     0.01311824
     47      1      Sr          0.00106521    -0.00046810     0.01452306
     48      1      Sr          0.00044067     0.00201073     0.01341242
     49      1      Sr         -0.00133357    -0.00233671     0.01434967
     50      1      Sr          0.00037377     0.00145143     0.01397421
     51      1      Sr         -0.00058025    -0.00263937     0.01386754
     52      1      Sr         -0.00007044     0.00131114     0.01440463
     53      1      Sr          0.00003125     0.00073622     0.01285474
     54      1      Sr          0.00044534    -0.00199594     0.01435043
     55      1      Sr          0.00115699     0.00213986     0.01416789
     56      1      Sr          0.00064559     0.00168343     0.01483111
     57      1      Sr          0.00045852    -0.00055915     0.01370345
     58      1      Sr         -0.00082481     0.00016262     0.01454152
     59      1      Sr         -0.00003945     0.00104056     0.01378189
     60      1      Sr         -0.00045311    -0.00220085     0.01413656
     61      2      Hf          0.06677419    -0.02022582     0.04521137
     62      2      Hf          0.06678391    -0.02027575     0.04521096
     63      2      Hf          0.06678203    -0.02025141     0.04520629
     64      2      Hf          0.06677974    -0.02024859     0.04524277
     65      2      Hf          0.06678471    -0.02027190     0.04524815
     66      2      Hf          0.06679184    -0.02028702     0.04523010
     67      2      Hf          0.06677092    -0.02021109     0.04522685
     68      2      Hf          0.06678042    -0.02022271     0.04524665
     69      2      Hf         -0.08254374    -0.00544946    -0.06268774
     70      2      Hf         -0.08253668    -0.00548719    -0.06270489
     71      2      Hf         -0.08253810    -0.00546835    -0.06270195
     72      2      Hf         -0.08253472    -0.00549571    -0.06266313
     73      2      Hf         -0.08252777    -0.00551126    -0.06267769
     74      2      Hf         -0.08252740    -0.00550758    -0.06269862
     75      2      Hf         -0.08253904    -0.00545546    -0.06266518
     76      2      Hf         -0.08253482    -0.00547690    -0.06266091
     77      2      Hf          0.01933880    -0.08640578     0.03211974
     78      2      Hf          0.01933854    -0.08643065     0.03209595
     79      2      Hf          0.01933416    -0.08640727     0.03210632
     80      2      Hf          0.01934084    -0.08645380     0.03211974
     81      2      Hf          0.01933813    -0.08646226     0.03210955
     82      2      Hf          0.01934390    -0.08645514     0.03209995
     83      2      Hf          0.01932789    -0.08640758     0.03212654
     84      2      Hf          0.01933483    -0.08643225     0.03213190
     85      2      Hf          0.00063792     0.10094279     0.05018423
     86      2      Hf          0.00064720     0.10089560     0.05019026
     87      2      Hf          0.00064834     0.10091259     0.05017791
     88      2      Hf          0.00064205     0.10093450     0.05022654
     89      2      Hf          0.00065296     0.10090640     0.05022193
     90      2      Hf          0.00064812     0.10089095     0.05020346
     91      2      Hf          0.00064449     0.10095573     0.05020131
     92      2      Hf          0.00063872     0.10095350     0.05021534
     93      2      Hf          0.05052650     0.00263093     0.06552555
     94      2      Hf          0.05054088     0.00250183     0.06558084
     95      2      Hf          0.05055065     0.00254793     0.06553498
     96      2      Hf          0.05052381     0.00267992     0.06569898
     97      2      Hf          0.05054708     0.00257787     0.06569775
     98      2      Hf          0.05055913     0.00251750     0.06562692
     99      2      Hf          0.05052092     0.00270869     0.06560138
    100      2      Hf          0.05052933     0.00270389     0.06563737
    101      2      Hf         -0.04835727     0.00491559    -0.05572839
    102      2      Hf         -0.04833410     0.00478617    -0.05575957
    103      2      Hf         -0.04834198     0.00484003    -0.05578573
    104      2      Hf         -0.04833397     0.00485036    -0.05559886
    105      2      Hf         -0.04831526     0.00478501    -0.05564356
    106      2      Hf         -0.04834229     0.00476072    -0.05573194
    107      2      Hf         -0.04833678     0.00492592    -0.05566027
    108      2      Hf         -0.04834420     0.00491266    -0.05561279
    109      2      Hf         -0.00914308    -0.07700318    -0.00015757
    110      2      Hf         -0.00913194    -0.07710073    -0.00021240
    111      2      Hf         -0.00913778    -0.07704572    -0.00018717
    112      2      Hf         -0.00917534    -0.07708495    -0.00006063
    113      2      Hf         -0.00913587    -0.07713618    -0.00010636
    114      2      Hf         -0.00913018    -0.07714026    -0.00017050
    115      2      Hf         -0.00917794    -0.07698639    -0.00007560
    116      2      Hf         -0.00914267    -0.07703932    -0.00005551
    117      2      Hf          0.00933885     0.07119864    -0.00335081
    118      2      Hf          0.00937202     0.07108491    -0.00326589
    119      2      Hf          0.00936988     0.07112234    -0.00332895
    120      2      Hf          0.00933387     0.07124277    -0.00316214
    121      2      Hf          0.00935368     0.07116655    -0.00318921
    122      2      Hf          0.00934559     0.07111506    -0.00317260
    123      2      Hf          0.00935166     0.07124574    -0.00331453
    124      2      Hf          0.00931916     0.07128203    -0.00326476
    125      2      Hf          0.05041577     0.00061899     0.06029056
    126      2      Hf          0.05052518     0.00033561     0.06066743
    127      2      Hf          0.05046779     0.00035579     0.06048072
    128      2      Hf          0.05030423     0.00086812     0.06091142
    129      2      Hf          0.05049742     0.00061121     0.06088369
    130      2      Hf          0.05035928     0.00046021     0.06094133
    131      2      Hf          0.05040260     0.00075431     0.06044554
    132      2      Hf          0.05037992     0.00088675     0.06052629
    133      2      Hf         -0.05051470    -0.00058631    -0.06088601
    134      2      Hf         -0.05043312    -0.00093773    -0.06078697
    135      2      Hf         -0.05043912    -0.00080646    -0.06089376
    136      2      Hf         -0.05042906    -0.00064359    -0.06025394
    137      2      Hf         -0.05048670    -0.00082498    -0.06050354
    138      2      Hf         -0.05041025    -0.00093511    -0.06041405
    139      2      Hf         -0.05047662    -0.00052305    -0.06073173
    140      2      Hf         -0.05056302    -0.00046927    -0.06058364
    141      2      Hf         -0.01194372    -0.07312472     0.00009031
    142      2      Hf         -0.01193432    -0.07349523     0.00005882
    143      2      Hf         -0.01182354    -0.07332559     0.00001736
    144      2      Hf         -0.01183783    -0.07321613     0.00050239
    145      2      Hf         -0.01191243    -0.07345005     0.00037326
    146      2      Hf         -0.01178611    -0.07353669     0.00013158
    147      2      Hf         -0.01185626    -0.07300947     0.00036356
    148      2      Hf         -0.01194308    -0.07308704     0.00039246
    149      2      Hf          0.01193966     0.07324238    -0.00035636
    150      2      Hf          0.01197956     0.07311936    -0.00005292
    151      2      Hf          0.01192587     0.07301506    -0.00040429
    152      2      Hf          0.01200529     0.07357769    -0.00004676
    153      2      Hf          0.01177535     0.07360686     0.00016383
    154      2      Hf          0.01198079     0.07319759     0.00003189
    155      2      Hf          0.01195880     0.07339989    -0.00045039
    156      2      Hf          0.01176587     0.07372925    -0.00014230
    157      2      Hf          0.04819972    -0.00537423     0.05564918
    158      2      Hf          0.04833568    -0.00506927     0.05690087
    159      2      Hf          0.04897144    -0.00563106     0.05574032
    160      2      Hf          0.04846240    -0.00268917     0.05695489
    161      2      Hf          0.04793923    -0.00319354     0.05699573
    162      2      Hf          0.04881542    -0.00415660     0.05703802
    163      2      Hf          0.04860010    -0.00414045     0.05577088
    164      2      Hf          0.04787082    -0.00348614     0.05579294
    165      2      Hf         -0.05053111    -0.00262159    -0.06592518
    166      2      Hf         -0.05013698    -0.00297725    -0.06472196
    167      2      Hf         -0.05093931    -0.00324256    -0.06683226
    168      2      Hf         -0.05008644    -0.00212687    -0.06483998
    169      2      Hf         -0.05037251    -0.00147299    -0.06295358
    170      2      Hf         -0.05045612    -0.00309693    -0.06559155
    171      2      Hf         -0.05055229    -0.00223495    -0.06597408
    172      2      Hf         -0.05071969    -0.00111609    -0.06420784
    173      2      Hf         -0.00934616    -0.07082821     0.00237179
    174      2      Hf         -0.00893813    -0.07192732     0.00260395
    175      2      Hf         -0.00962318    -0.07172048     0.00243910
    176      2      Hf         -0.01010187    -0.07113203     0.00392228
    177      2      Hf         -0.00894159    -0.07164817     0.00298628
    178      2      Hf         -0.01022876    -0.07209037     0.00364003
    179      2      Hf         -0.00954417    -0.07080306     0.00270552
    180      2      Hf         -0.00941568    -0.07055841     0.00280439
    181      2      Hf          0.00923217     0.07606514    -0.00064158
    182      2      Hf          0.00861955     0.07607304    -0.00020334
    183      2      Hf          0.00956314     0.07604432     0.00103213
    184      2      Hf          0.00942360     0.07738302    -0.00036379
    185      2      Hf          0.00867889     0.07748100    -0.00039790
    186      2      Hf          0.00952230     0.07645045     0.00117504
    187      2      Hf          0.00951901     0.07704096    -0.00046715
    188      2      Hf          0.00922832     0.07744667    -0.00083881
    189      2      Hf          0.08313803     0.00116367     0.05053780
    190      2      Hf          0.08553461     0.00951947     0.05362381
    191      2      Hf          0.07300539     0.00488255     0.05342625
    192      2      Hf          0.07546915     0.00428583     0.06587171
    193      2      Hf          0.09072366     0.00326775     0.05651888
    194      2      Hf          0.07372409     0.01024577     0.06225309
    195      2      Hf          0.07446847    -0.00090724     0.05652254
    196      2      Hf          0.08836168    -0.00454425     0.05331987
    197      2      Hf         -0.06597063     0.01925082    -0.05608264
    198      2      Hf         -0.06358172     0.02132314    -0.04949408
    199      2      Hf         -0.06354729     0.01797625    -0.05641725
    200      2      Hf         -0.06985373     0.02296988    -0.05725954
    201      2      Hf         -0.06636139     0.01864030    -0.04454246
    202      2      Hf         -0.06523067     0.02245024    -0.05563468
    203      2      Hf         -0.06809458     0.01870360    -0.05785875
    204      2      Hf         -0.06933365     0.01632621    -0.05113115
    205      2      Hf         -0.00929348    -0.09913824    -0.04557044
    206      2      Hf         -0.00760372    -0.09950601    -0.04233655
    207      2      Hf          0.00725247    -0.10344503    -0.05211374
    208      2      Hf          0.00148023    -0.09685014    -0.04221863
    209      2      Hf         -0.01546123    -0.09086922    -0.03608442
    210      2      Hf          0.00847461    -0.09999953    -0.04747783
    211      2      Hf          0.00026391    -0.10013195    -0.04709126
    212      2      Hf         -0.01679235    -0.09098094    -0.03925450
    213      2      Hf         -0.01765671     0.08487570    -0.03935275
    214      2      Hf         -0.01204926     0.08718818    -0.03676435
    215      2      Hf         -0.01335304     0.09001587    -0.02868005
    216      2      Hf         -0.01348564     0.07544912    -0.02136552
    217      2      Hf         -0.00970606     0.08818628    -0.03420291
    218      2      Hf         -0.00867956     0.08427550    -0.01088954
    219      2      Hf         -0.01842135     0.08153347    -0.03901859
    220      2      Hf         -0.01475913     0.08629340    -0.03581009
    221      3      Ti          0.00007754    -0.00000363    -0.01503421
    222      3      Ti         -0.00011577    -0.00000438    -0.01567452
    223      3      Ti          0.00004281     0.00013788    -0.01553282
    224      3      Ti         -0.00009333     0.00002574    -0.01490788
    225      3      Ti         -0.00000398    -0.00013702    -0.01584090
    226      3      Ti         -0.00003129     0.00001268    -0.01572236
    227      3      Ti          0.00004065     0.00008443    -0.01540653
    228      3      Ti         -0.00005431     0.00004611    -0.01517753
    229      3      Ti          0.00007031    -0.00004780    -0.01564779
    230      3      Ti          0.00001412    -0.00007040    -0.01506805
    231      3      Ti         -0.00002592    -0.00009586    -0.01579826
    232      3      Ti          0.00008533     0.00014169    -0.01546271
    233      3      Ti         -0.00004005     0.00004767    -0.01514536
    234      3      Ti          0.00007983     0.00009446    -0.01543445
    235      3      Ti          0.00001870    -0.00019274    -0.01501230
    236      3      Ti          0.00011231     0.00008865    -0.01539726
    237      3      Ti         -0.00010926     0.00003789    -0.01530781
    238      3      Ti          0.00003356     0.00018725    -0.01557366
    239      3      Ti          0.00000063    -0.00006827    -0.01469158
    240      3      Ti         -0.00005800    -0.00018761    -0.01570274
    241      3      Ti          0.00034675    -0.00027130    -0.00020523
    242      3      Ti         -0.00055413    -0.00002171    -0.00322241
    243      3      Ti          0.00045159     0.00059220    -0.00288460
    244      3      Ti         -0.00046512     0.00009693     0.00135642
    245      3      Ti         -0.00017225    -0.00018732    -0.00398132
    246      3      Ti         -0.00015173    -0.00007560    -0.00287962
    247      3      Ti          0.00038029     0.00029886    -0.00153687
    248      3      Ti         -0.00040359     0.00008603    -0.00086551
    249      3      Ti          0.00049081    -0.00031917    -0.00373176
    250      3      Ti          0.00021529    -0.00004490    -0.00000478
    251      3      Ti         -0.00016358    -0.00044993    -0.00407393
    252      3      Ti          0.00033615     0.00058938    -0.00157313
    253      3      Ti          0.00000570     0.00015667    -0.00073848
    254      3      Ti          0.00026626     0.00019426    -0.00135050
    255      3      Ti         -0.00004024    -0.00069879     0.00021733
    256      3      Ti          0.00034560     0.00007347    -0.00178994
    257      3      Ti         -0.00064566     0.00024447    -0.00086504
    258      3      Ti         -0.00000798     0.00057190    -0.00275241
    259      3      Ti          0.00010826    -0.00015601     0.00092270
    260      3      Ti         -0.00031784    -0.00056305    -0.00284427
    261      3      Ti         -0.00336276    -0.01456279     0.00876325
    262      3      Ti         -0.00393549     0.00832801    -0.04036563
    263      3      Ti         -0.00166766     0.00147550    -0.03079466
    264      3      Ti          0.00636471    -0.00433364    -0.01531062
    265      3      Ti         -0.00091958     0.01004082    -0.05552303
    266      3      Ti          0.00658845     0.02365446    -0.04586518
    267      3      Ti         -0.00491123    -0.02265817    -0.02327086
    268      3      Ti         -0.00883507     0.01038548    -0.03341560
    269      3      Ti          0.00084492    -0.00338809    -0.03774444
    270      3      Ti          0.00827842    -0.01613781    -0.02958032
    271      3      Ti          0.00369005     0.00325150    -0.04632554
    272      3      Ti          0.00265076    -0.01514201    -0.04268508
    273      3      Ti          0.00878417     0.02289158    -0.01624743
    274      3      Ti         -0.00008432    -0.01736114    -0.04846046
    275      3      Ti         -0.01386701     0.00595508    -0.03778607
    276      3      Ti         -0.01071646     0.00401865    -0.03798676
    277      3      Ti          0.00559982     0.00829697    -0.02693137
    278      3      Ti         -0.00595403    -0.00626106    -0.04955440
    279      3      Ti          0.00531453     0.00793830     0.01145617
    280      3      Ti          0.00044356    -0.00292824    -0.04998256
    281      4      O           0.00017365     0.00044986    -0.00071925
    282      4      O          -0.00033959    -0.00079599    -0.00070446
    283      4      O           0.00039935     0.00085349    -0.00067005
    284      4      O          -0.00030752    -0.00073260    -0.00077124
    285      4      O           0.00011933     0.00021354    -0.00069442
    286      4      O          -0.00019348    -0.00043753    -0.00074078
    287      4      O          -0.00003423    -0.00007802    -0.00064975
    288      4      O           0.00021320     0.00047768    -0.00076464
    289      4      O          -0.00036848    -0.00083634    -0.00071799
    290      4      O           0.00035008     0.00086190    -0.00072858
    291      4      O           0.00035074     0.00083533    -0.00075079
    292      4      O          -0.00046950    -0.00102116    -0.00067141
    293      4      O           0.00036184     0.00082256    -0.00073331
    294      4      O          -0.00024564    -0.00055564    -0.00077875
    295      4      O          -0.00006092    -0.00007647    -0.00072951
    296      4      O          -0.00028563    -0.00059880    -0.00072086
    297      4      O          -0.00002168    -0.00005841    -0.00068900
    298      4      O           0.00028332     0.00056142    -0.00074647
    299      4      O          -0.00049330    -0.00112050    -0.00077202
    300      4      O           0.00053706     0.00118415    -0.00075059
    301      4      O           0.00032969     0.00092681    -0.00080847
    302      4      O          -0.00015463    -0.00060382    -0.00078580
    303      4      O           0.00000420    -0.00006011    -0.00071140
    304      4      O           0.00031049     0.00054541    -0.00093570
    305      4      O          -0.00040384    -0.00087064    -0.00070159
    306      4      O           0.00030525     0.00053331    -0.00072962
    307      4      O          -0.00043418    -0.00095683    -0.00075353
    308      4      O           0.00048557     0.00088591    -0.00085480
    309      4      O          -0.00030080    -0.00052180    -0.00073160
    310      4      O          -0.00004361     0.00001955    -0.00082438
    311      4      O           0.00041016     0.00093805    -0.00070133
    312      4      O          -0.00025021    -0.00060745    -0.00079576
    313      4      O           0.00002189    -0.00001357    -0.00079543
    314      4      O           0.00018180     0.00058243    -0.00077780
    315      4      O          -0.00041583    -0.00087787    -0.00085584
    316      4      O           0.00019156     0.00054162    -0.00079819
    317      4      O          -0.00033225    -0.00096422    -0.00080604
    318      4      O           0.00041487     0.00087351    -0.00076228
    319      4      O          -0.00034498    -0.00047799    -0.00092775
    320      4      O           0.00000024     0.00004663    -0.00066957
    321      4      O          -0.00025394    -0.00055279    -0.01444239
    322      4      O           0.00003333     0.00000721    -0.01409302
    323      4      O           0.00023014     0.00052133    -0.01430849
    324      4      O          -0.00039310    -0.00095290    -0.01438967
    325      4      O           0.00041607     0.00098512    -0.01414341
    326      4      O          -0.00039687    -0.00094130    -0.01416387
    327      4      O           0.00040272     0.00091730    -0.01425726
    328      4      O          -0.00022583    -0.00057108    -0.01438973
    329      4      O          -0.00001707     0.00001088    -0.01410620
    330      4      O           0.00024066     0.00057697    -0.01439996
    331      4      O          -0.00023154    -0.00053057    -0.01423207
    332      4      O          -0.00001972    -0.00003441    -0.01413620
    333      4      O           0.00025044     0.00054976    -0.01440275
    334      4      O          -0.00043223    -0.00096801    -0.01423928
    335      4      O           0.00040646     0.00099593    -0.01436446
    336      4      O          -0.00043852    -0.00096599    -0.01425786
    337      4      O           0.00044606     0.00093515    -0.01427664
    338      4      O          -0.00026107    -0.00060717    -0.01428823
    339      4      O           0.00000562     0.00002139    -0.01434831
    340      4      O           0.00025457     0.00060944    -0.01425739
    341      4      O          -0.00008091    -0.00015248    -0.00211312
    342      4      O          -0.00000860    -0.00028008    -0.00198466
    343      4      O           0.00024072     0.00074583    -0.00201330
    344      4      O          -0.00058966    -0.00139790    -0.00211716
    345      4      O           0.00058855     0.00093293    -0.00234558
    346      4      O          -0.00018038    -0.00019067    -0.00211785
    347      4      O          -0.00018073    -0.00035731    -0.00219958
    348      4      O           0.00024791     0.00036099    -0.00207333
    349      4      O          -0.00031905    -0.00044652    -0.00215808
    350      4      O           0.00014941     0.00054519    -0.00203997
    351      4      O           0.00068086     0.00162960    -0.00208542
    352      4      O          -0.00055385    -0.00136760    -0.00196303
    353      4      O           0.00014635     0.00058564    -0.00220607
    354      4      O          -0.00026051    -0.00054225    -0.00224841
    355      4      O          -0.00010610    -0.00019214    -0.00257572
    356      4      O          -0.00036293    -0.00063828    -0.00213953
    357      4      O          -0.00004619    -0.00022062    -0.00220390
    358      4      O           0.00057849     0.00075877    -0.00214999
    359      4      O          -0.00080615    -0.00182032    -0.00229748
    360      4      O           0.00091401     0.00194913    -0.00230204
    361      4      O           0.00017773     0.00108186    -0.00236951
    362      4      O           0.00038426    -0.00082441    -0.00206096
    363      4      O           0.00005797    -0.00026675    -0.00200854
    364      4      O           0.00024177     0.00065383    -0.00278641
    365      4      O          -0.00020733    -0.00097815    -0.00174676
    366      4      O           0.00042988     0.00052098    -0.00175216
    367      4      O          -0.00080557    -0.00102932    -0.00210975
    368      4      O           0.00102000     0.00077442    -0.00265202
    369      4      O          -0.00030573    -0.00047414    -0.00158674
    370      4      O          -0.00040028     0.00022781    -0.00269086
    371      4      O           0.00064092     0.00098891    -0.00182402
    372      4      O          -0.00045836    -0.00063143    -0.00220261
    373      4      O           0.00009130    -0.00007871    -0.00246311
    374      4      O          -0.00036538     0.00083231    -0.00196467
    375      4      O          -0.00051531    -0.00084272    -0.00261297
    376      4      O           0.00011684     0.00044062    -0.00216473
    377      4      O          -0.00011156    -0.00110012    -0.00251082
    378      4      O           0.00056171     0.00080977    -0.00205695
    379      4      O          -0.00031159    -0.00047245    -0.00262553
    380      4      O          -0.00013044     0.00022580    -0.00193611
    381      4      O          -0.00031054    -0.00053165     0.00227809
    382      4      O           0.00010520     0.00002161     0.00367758
    383      4      O           0.00018399     0.00046134     0.00343353
    384      4      O          -0.00034812    -0.00090177     0.00224431
    385      4      O           0.00042991     0.00094464     0.00408421
    386      4      O          -0.00037547    -0.00091978     0.00378146
    387      4      O           0.00032742     0.00084389     0.00312575
    388      4      O          -0.00017481    -0.00056414     0.00285388
    389      4      O          -0.00008046     0.00004437     0.00366664
    390      4      O           0.00018712     0.00056746     0.00264765
    391      4      O          -0.00020943    -0.00046189     0.00395776
    392      4      O          -0.00006275    -0.00008330     0.00332344
    393      4      O           0.00026311     0.00050561     0.00273367
    394      4      O          -0.00045791    -0.00091541     0.00336819
    395      4      O           0.00041793     0.00101119     0.00253349
    396      4      O          -0.00045220    -0.00092374     0.00317965
    397      4      O           0.00050754     0.00086889     0.00298921
    398      4      O          -0.00025047    -0.00064855     0.00365809
    399      4      O           0.00000471     0.00004221     0.00173851
    400      4      O           0.00029793     0.00065867     0.00383096
    401      4      O          -0.00893059    -0.01569225    -0.00612868
    402      4      O           0.00184428     0.00621630     0.01055729
    403      4      O           0.00875139     0.00002025     0.00125833
    404      4      O          -0.00410151    -0.00482552     0.00812849
    405      4      O           0.00284299     0.00678315     0.00797512
    406      4      O           0.00390940     0.00343651     0.01401046
    407      4      O          -0.00978606    -0.00840927    -0.02699295
    408      4      O          -0.00028442    -0.00227003     0.01320145
    409      4      O           0.00523238    -0.00115177     0.00382876
    410      4      O          -0.00646108    -0.01023677    -0.00002261
    411      4      O           0.00148675     0.00289390     0.00246531
    412      4      O          -0.00217102    -0.00079625    -0.00719353
    413      4      O           0.00134199    -0.00039938     0.01661891
    414      4      O           0.00126392     0.01491735    -0.02405417
    415      4      O          -0.00128732    -0.00672546     0.00833143
    416      4      O           0.00164646    -0.00599404     0.00127602
    417      4      O           0.00120045     0.00591352     0.00561690
    418      4      O           0.00164389     0.00955870    -0.00051418
    419      4      O          -0.00511825    -0.01144429     0.01047822
    420      4      O           0.00611510     0.01809194    -0.00213480
    421      4      O          -0.00167053     0.00621410     0.00422068
    422      4      O          -0.00137674    -0.00731438     0.00344167
    423      4      O          -0.00042754     0.00571513     0.00691937
    424      4      O           0.01067928    -0.00476063    -0.00278348
    425      4      O          -0.00244339     0.00159669     0.00968241
    426      4      O          -0.00338042    -0.00316862     0.00687800
    427      4      O           0.00183966     0.00086794     0.00974695
    428      4      O          -0.00677866    -0.00485914    -0.01695214
    429      4      O          -0.00021610    -0.00000007     0.01398177
    430      4      O           0.01260476    -0.00337981     0.00149792
    431      4      O           0.00236397    -0.00265264     0.01237577
    432      4      O           0.00246128    -0.00264190     0.00350516
    433      4      O          -0.00216170    -0.00363365    -0.00604200
    434      4      O           0.00306580     0.00146619     0.01548747
    435      4      O          -0.01173978     0.00601580    -0.03111554
    436      4      O          -0.00310196     0.01285176    -0.01210899
    437      4      O           0.00257332    -0.00629957     0.00355389
    438      4      O          -0.00080947     0.00358662     0.00319875
    439      4      O          -0.00227488     0.00354154    -0.00520175
    440      4      O          -0.00059242    -0.00239879     0.01478458
    441      4      O           0.00043293    -0.00083920     0.00935185
    442      4      O           0.00032407    -0.00002327     0.01674194
    443      4      O           0.00022392     0.00047971     0.01624474
    444      4      O          -0.00073039    -0.00065345     0.00927962
    445      4      O           0.00032378    -0.00006666     0.01761656
    446      4      O          -0.00118697    -0.00357825     0.01618532
    447      4      O           0.00095563     0.00232799     0.01372873
    448      4      O           0.00001075    -0.00110241     0.01301166
    449      4      O          -0.00031605    -0.00058116     0.01725947
    450      4      O          -0.00094271     0.00196009     0.01189148
    451      4      O          -0.00008964    -0.00109883     0.01795683
    452      4      O          -0.00031441     0.00172587     0.01435037
    453      4      O           0.00023185    -0.00119678     0.01274433
    454      4      O          -0.00052869     0.00098479     0.01434025
    455      4      O           0.00078750     0.00043749     0.01042521
    456      4      O          -0.00008933    -0.00134569     0.01404666
    457      4      O           0.00105380     0.00119780     0.01295743
    458      4      O           0.00026111    -0.00020684     0.01620148
    459      4      O           0.00065556    -0.00066507     0.00770443
    460      4      O           0.00017974     0.00161596     0.01633710
    461      4      O          -0.09992087     0.09394683    -0.00365540
    462      4      O          -0.09992357     0.09397374    -0.00365588
    463      4      O          -0.09992476     0.09396167    -0.00365498
    464      4      O          -0.09992586     0.09397464    -0.00366858
    465      4      O          -0.09992948     0.09398791    -0.00366604
    466      4      O          -0.09992663     0.09398720    -0.00365857
    467      4      O          -0.09992628     0.09394869    -0.00366298
    468      4      O          -0.09992538     0.09396059    -0.00366105
    469      4      O           0.12609718    -0.08940106     0.03199518
    470      4      O           0.12608902    -0.08938144     0.03199291
    471      4      O           0.12609254    -0.08939638     0.03199289
    472      4      O           0.12609704    -0.08938067     0.03198464
    473      4      O           0.12609656    -0.08937199     0.03198547
    474      4      O           0.12609126    -0.08937214     0.03198933
    475      4      O           0.12609716    -0.08940770     0.03198875
    476      4      O           0.12609541    -0.08939587     0.03198550
    477      4      O          -0.01224840    -0.01692351     0.02836560
    478      4      O          -0.01224695    -0.01692201     0.02837744
    479      4      O          -0.01224593    -0.01692722     0.02837429
    480      4      O          -0.01225374    -0.01691204     0.02837328
    481      4      O          -0.01225415    -0.01691089     0.02837561
    482      4      O          -0.01225377    -0.01691387     0.02838044
    483      4      O          -0.01224309    -0.01692482     0.02836638
    484      4      O          -0.01225014    -0.01691631     0.02836899
    485      4      O          -0.03051231     0.02396047    -0.04727632
    486      4      O          -0.03051998     0.02397279    -0.04729729
    487      4      O          -0.03052112     0.02397069    -0.04727924
    488      4      O          -0.03051369     0.02394960    -0.04734220
    489      4      O          -0.03052231     0.02395996    -0.04734359
    490      4      O          -0.03052300     0.02396988    -0.04731728
    491      4      O          -0.03051257     0.02395097    -0.04730347
    492      4      O          -0.03051324     0.02394840    -0.04732006
    493      4      O          -0.01441227     0.05647270     0.03218447
    494      4      O          -0.01441024     0.05648100     0.03218783
    495      4      O          -0.01441347     0.05647488     0.03218544
    496      4      O          -0.01441462     0.05650623     0.03218379
    497      4      O          -0.01441550     0.05650698     0.03218450
    498      4      O          -0.01441282     0.05649716     0.03218687
    499      4      O          -0.01441456     0.05648362     0.03218150
    500      4      O          -0.01441623     0.05649718     0.03218039
    501      4      O           0.02878451    -0.08746572    -0.02406286
    502      4      O           0.02878501    -0.08744847    -0.02407533
    503      4      O           0.02878269    -0.08745354    -0.02406714
    504      4      O           0.02879021    -0.08748299    -0.02410459
    505      4      O           0.02878634    -0.08746904    -0.02410848
    506      4      O           0.02878289    -0.08745330    -0.02409530
    507      4      O           0.02878732    -0.08748342    -0.02407717
    508      4      O           0.02878502    -0.08748596    -0.02409462
    509      4      O          -0.03239758     0.09653381     0.07225692
    510      4      O          -0.03240036     0.09656162     0.07225809
    511      4      O          -0.03239678     0.09654975     0.07225748
    512      4      O          -0.03240194     0.09654968     0.07225545
    513      4      O          -0.03240512     0.09656500     0.07225379
    514      4      O          -0.03240604     0.09656868     0.07225648
    515      4      O          -0.03239861     0.09652918     0.07225370
    516      4      O          -0.03240283     0.09653691     0.07225155
    517      4      O           0.00940497    -0.09697241    -0.03385488
    518      4      O           0.00939951    -0.09694574    -0.03383803
    519      4      O           0.00939687    -0.09696130    -0.03384500
    520      4      O           0.00940871    -0.09694193    -0.03387716
    521      4      O           0.00940211    -0.09693091    -0.03386501
    522      4      O           0.00939698    -0.09692979    -0.03384716
    523      4      O           0.00940945    -0.09697353    -0.03387530
    524      4      O           0.00940361    -0.09695822    -0.03387918
    525      4      O          -0.10791655     0.11689946    -0.02058204
    526      4      O          -0.10792764     0.11699789    -0.02058955
    527      4      O          -0.10792107     0.11695411    -0.02057695
    528      4      O          -0.10792855     0.11695644    -0.02062343
    529      4      O          -0.10793554     0.11699634    -0.02061468
    530      4      O          -0.10791713     0.11701941    -0.02060683
    531      4      O          -0.10792825     0.11689341    -0.02059027
    532      4      O          -0.10792115     0.11689746    -0.02060832
    533      4      O           0.10762008    -0.11605681     0.02013922
    534      4      O           0.10762710    -0.11599033     0.02012745
    535      4      O           0.10761537    -0.11602100     0.02013314
    536      4      O           0.10763079    -0.11603871     0.02009721
    537      4      O           0.10762643    -0.11599513     0.02009690
    538      4      O           0.10761541    -0.11597711     0.02010925
    539      4      O           0.10762700    -0.11608343     0.02012093
    540      4      O           0.10762115    -0.11606173     0.02010890
    541      4      O           0.02428335    -0.01614687     0.04278820
    542      4      O           0.02426572    -0.01612077     0.04282512
    543      4      O           0.02426989    -0.01613325     0.04281107
    544      4      O           0.02427626    -0.01612368     0.04275923
    545      4      O           0.02425753    -0.01610743     0.04279000
    546      4      O           0.02425523    -0.01610747     0.04281805
    547      4      O           0.02428895    -0.01615018     0.04275086
    548      4      O           0.02427277    -0.01613167     0.04275621
    549      4      O          -0.02261472     0.01918442    -0.03536324
    550      4      O          -0.02264603     0.01919814    -0.03551687
    551      4      O          -0.02263855     0.01920423    -0.03543028
    552      4      O          -0.02259661     0.01913429    -0.03560498
    553      4      O          -0.02263082     0.01915738    -0.03560594
    554      4      O          -0.02261746     0.01917647    -0.03561178
    555      4      O          -0.02261334     0.01916287    -0.03542030
    556      4      O          -0.02259745     0.01914286    -0.03546034
    557      4      O          -0.03541929     0.07510638     0.03452557
    558      4      O          -0.03542405     0.07515511     0.03454413
    559      4      O          -0.03542803     0.07512929     0.03453941
    560      4      O          -0.03544246     0.07516693     0.03450515
    561      4      O          -0.03543961     0.07518467     0.03452310
    562      4      O          -0.03542991     0.07517872     0.03454482
    563      4      O          -0.03543811     0.07511867     0.03450494
    564      4      O          -0.03543307     0.07513954     0.03450802
    565      4      O           0.03383571    -0.06879551    -0.01686606
    566      4      O           0.03383892    -0.06877346    -0.01697447
    567      4      O           0.03383359    -0.06876818    -0.01689366
    568      4      O           0.03385627    -0.06887450    -0.01696747
    569      4      O           0.03384065    -0.06884049    -0.01702352
    570      4      O           0.03384861    -0.06879829    -0.01697242
    571      4      O           0.03384093    -0.06884362    -0.01688352
    572      4      O           0.03383974    -0.06886074    -0.01691895
    573      4      O          -0.01054963     0.11698144     0.02730426
    574      4      O          -0.01055774     0.11705297     0.02729781
    575      4      O          -0.01055653     0.11702599     0.02730950
    576      4      O          -0.01055152     0.11698113     0.02727131
    577      4      O          -0.01056258     0.11702647     0.02727449
    578      4      O          -0.01055619     0.11705254     0.02729111
    579      4      O          -0.01055102     0.11695789     0.02729139
    580      4      O          -0.01055307     0.11695651     0.02728136
    581      4      O           0.01144380    -0.11778992    -0.03176414
    582      4      O           0.01142972    -0.11769983    -0.03174913
    583      4      O           0.01142074    -0.11774013    -0.03173441
    584      4      O           0.01145466    -0.11776257    -0.03187368
    585      4      O           0.01144381    -0.11770386    -0.03183725
    586      4      O           0.01142842    -0.11768811    -0.03177068
    587      4      O           0.01144322    -0.11781612    -0.03183170
    588      4      O           0.01146028    -0.11779253    -0.03184944
    589      4      O          -0.10986514     0.11400949    -0.01925428
    590      4      O          -0.10989356     0.11422701    -0.01931684
    591      4      O          -0.10988452     0.11410357    -0.01923521
    592      4      O          -0.10994555     0.11400651    -0.01939055
    593      4      O          -0.10984034     0.11409321    -0.01939840
    594      4      O          -0.10993582     0.11420910    -0.01937413
    595      4      O          -0.10988671     0.11391023    -0.01925915
    596      4      O          -0.10981811     0.11387452    -0.01933734
    597      4      O           0.10947288    -0.11581607     0.02097009
    598      4      O           0.10947508    -0.11559510     0.02087769
    599      4      O           0.10948350    -0.11568988     0.02094580
    600      4      O           0.10955915    -0.11586927     0.02087994
    601      4      O           0.10948059    -0.11569818     0.02083646
    602      4      O           0.10955661    -0.11563077     0.02087768
    603      4      O           0.10949063    -0.11592446     0.02095253
    604      4      O           0.10949131    -0.11591320     0.02092730
    605      4      O           0.02199573    -0.02022677     0.03424589
    606      4      O           0.02191789    -0.02011822     0.03433253
    607      4      O           0.02191036    -0.02014436     0.03435118
    608      4      O           0.02192717    -0.02015937     0.03412960
    609      4      O           0.02191600    -0.02012013     0.03419152
    610      4      O           0.02188830    -0.02008290     0.03432571
    611      4      O           0.02194675    -0.02021824     0.03416839
    612      4      O           0.02200115    -0.02022983     0.03410698
    613      4      O          -0.02153524     0.01952757    -0.03588910
    614      4      O          -0.02158718     0.01948344    -0.03633649
    615      4      O          -0.02161997     0.01950999    -0.03591430
    616      4      O          -0.02157341     0.01925430    -0.03642183
    617      4      O          -0.02144165     0.01930582    -0.03641312
    618      4      O          -0.02161623     0.01934444    -0.03649736
    619      4      O          -0.02157605     0.01941290    -0.03588890
    620      4      O          -0.02140629     0.01934652    -0.03598120
    621      4      O          -0.03296353     0.07083844     0.01801458
    622      4      O          -0.03297421     0.07104774     0.01806050
    623      4      O          -0.03294052     0.07096470     0.01807367
    624      4      O          -0.03298934     0.07103013     0.01794451
    625      4      O          -0.03301103     0.07108084     0.01799075
    626      4      O          -0.03294113     0.07113088     0.01803449
    627      4      O          -0.03297934     0.07086946     0.01798884
    628      4      O          -0.03299389     0.07086986     0.01794115
    629      4      O           0.03215565    -0.07008271    -0.01620004
    630      4      O           0.03212849    -0.07012068    -0.01654034
    631      4      O           0.03209708    -0.07010867    -0.01658481
    632      4      O           0.03217316    -0.07048329    -0.01685437
    633      4      O           0.03213219    -0.07033429    -0.01666330
    634      4      O           0.03216241    -0.07038116    -0.01706469
    635      4      O           0.03211690    -0.07021329    -0.01638914
    636      4      O           0.03215180    -0.07029985    -0.01635036
    637      4      O          -0.01121497     0.11542705     0.03422098
    638      4      O          -0.01125941     0.11557492     0.03416348
    639      4      O          -0.01126033     0.11554177     0.03419974
    640      4      O          -0.01123855     0.11533611     0.03407583
    641      4      O          -0.01124853     0.11543829     0.03410385
    642      4      O          -0.01125676     0.11552257     0.03408494
    643      4      O          -0.01123469     0.11535972     0.03418758
    644      4      O          -0.01120769     0.11528880     0.03415408
    645      4      O           0.01150311    -0.11646165    -0.03228069
    646      4      O           0.01149393    -0.11616848    -0.03236027
    647      4      O           0.01149731    -0.11623605    -0.03228194
    648      4      O           0.01162318    -0.11642353    -0.03271632
    649      4      O           0.01153144    -0.11626549    -0.03253940
    650      4      O           0.01161326    -0.11615190    -0.03259134
    651      4      O           0.01151116    -0.11649887    -0.03239721
    652      4      O           0.01154454    -0.11655393    -0.03246969
    653      4      O          -0.10848143     0.11659834    -0.01855177
    654      4      O          -0.10875318     0.11705111    -0.01870365
    655      4      O          -0.10821210     0.11743226    -0.01876160
    656      4      O          -0.10836172     0.11603640    -0.01869392
    657      4      O          -0.10870069     0.11618008    -0.01879004
    658      4      O          -0.10834571     0.11715568    -0.01895887
    659      4      O          -0.10826693     0.11630121    -0.01850124
    660      4      O          -0.10845250     0.11573147    -0.01860643
    661      4      O           0.10858120    -0.11529311     0.02236849
    662      4      O           0.10856699    -0.11489190     0.02208280
    663      4      O           0.10811607    -0.11486274     0.02201512
    664      4      O           0.10840505    -0.11561387     0.02178746
    665      4      O           0.10855815    -0.11521030     0.02196109
    666      4      O           0.10820398    -0.11494440     0.02158997
    667      4      O           0.10836424    -0.11550600     0.02220631
    668      4      O           0.10855142    -0.11559643     0.02221855
    669      4      O           0.02167692    -0.01844316     0.03432294
    670      4      O           0.02150863    -0.01814689     0.03433272
    671      4      O           0.02159168    -0.01826736     0.03433987
    672      4      O           0.02174686    -0.01838904     0.03358010
    673      4      O           0.02161813    -0.01819556     0.03403115
    674      4      O           0.02168175    -0.01820291     0.03379777
    675      4      O           0.02167063    -0.01844566     0.03412910
    676      4      O           0.02178097    -0.01849366     0.03399948
    677      4      O          -0.02392950     0.01654957    -0.04310499
    678      4      O          -0.02383042     0.01632896    -0.04335486
    679      4      O          -0.02328265     0.01690421    -0.04508295
    680      4      O          -0.02356111     0.01626925    -0.04363394
    681      4      O          -0.02395248     0.01646299    -0.04351031
    682      4      O          -0.02331889     0.01645157    -0.04528195
    683      4      O          -0.02354559     0.01668539    -0.04352711
    684      4      O          -0.02403126     0.01664530    -0.04319269
    685      4      O          -0.03333592     0.06842582     0.01876753
    686      4      O          -0.03336319     0.06890397     0.01873408
    687      4      O          -0.03338020     0.06848946     0.01889030
    688      4      O          -0.03371895     0.06866906     0.01842270
    689      4      O          -0.03317499     0.06881365     0.01844845
    690      4      O          -0.03365984     0.06883800     0.01858437
    691      4      O          -0.03341518     0.06832980     0.01871757
    692      4      O          -0.03317250     0.06831923     0.01847716
    693      4      O           0.03489630    -0.07612272    -0.03288195
    694      4      O           0.03495976    -0.07652969    -0.03294998
    695      4      O           0.03523531    -0.07621588    -0.03196015
    696      4      O           0.03479366    -0.07685084    -0.03170999
    697      4      O           0.03511681    -0.07694343    -0.03216096
    698      4      O           0.03510360    -0.07695202    -0.03227652
    699      4      O           0.03490460    -0.07615483    -0.03141112
    700      4      O           0.03502970    -0.07655290    -0.03209358
    701      4      O          -0.01108302     0.11893246     0.03351594
    702      4      O          -0.01116826     0.11888008     0.03331019
    703      4      O          -0.01098460     0.11932613     0.03362742
    704      4      O          -0.01116018     0.11826989     0.03337550
    705      4      O          -0.01099735     0.11788314     0.03318085
    706      4      O          -0.01110700     0.11895122     0.03334573
    707      4      O          -0.01104473     0.11861818     0.03363640
    708      4      O          -0.01094291     0.11792971     0.03338343
    709      4      O           0.01089054    -0.11531585    -0.02574411
    710      4      O           0.01109834    -0.11485293    -0.02646688
    711      4      O           0.01039349    -0.11489687    -0.02467095
    712      4      O           0.01113261    -0.11607180    -0.02801207
    713      4      O           0.01178595    -0.11579839    -0.02742827
    714      4      O           0.01061751    -0.11538116    -0.02681880
    715      4      O           0.01096430    -0.11556096    -0.02593476
    716      4      O           0.01151079    -0.11621741    -0.02666383
    717      4      O          -0.12280045     0.09266359    -0.02717758
    718      4      O          -0.11894526     0.09300510    -0.02661117
    719      4      O          -0.12354953     0.09347357    -0.02819599
    720      4      O          -0.12727195     0.08950396    -0.03182211
    721      4      O          -0.12193965     0.09408428    -0.02767445
    722      4      O          -0.12487706     0.09067023    -0.02599285
    723      4      O          -0.12599835     0.09243690    -0.03402439
    724      4      O          -0.12595093     0.09460127    -0.02829507
    725      4      O           0.09987134    -0.09565108     0.00472410
    726      4      O           0.10136682    -0.09802201     0.00302013
    727      4      O           0.10079998    -0.09426009     0.00685245
    728      4      O           0.09955913    -0.09790098     0.00728940
    729      4      O           0.10026775    -0.10020602     0.00516886
    730      4      O           0.10077029    -0.09580341     0.00726067
    731      4      O           0.09942120    -0.09628703     0.00688580
    732      4      O           0.09876570    -0.09769855     0.00668922
    733      4      O           0.03098801    -0.02560930     0.04589796
    734      4      O           0.03047960    -0.02464311     0.04384267
    735      4      O           0.02955840    -0.02487827     0.04769858
    736      4      O           0.02894703    -0.02571311     0.04480777
    737      4      O           0.03149634    -0.02608841     0.03908779
    738      4      O           0.02913709    -0.02448430     0.04616417
    739      4      O           0.02937492    -0.02614433     0.04602913
    740      4      O           0.03166435    -0.02665689     0.04119156
    741      4      O           0.00406421     0.00663909    -0.01950588
    742      4      O          -0.00666087     0.01517273    -0.04854818
    743      4      O           0.01546928     0.01230228    -0.01536322
    744      4      O           0.01749368     0.01731860    -0.01889305
    745      4      O           0.00119024     0.03225149    -0.04869355
    746      4      O           0.02509625     0.00921137    -0.01657132
    747      4      O           0.00830848     0.01951456    -0.01329251
    748      4      O           0.01377287     0.02815830    -0.01833640
    749      4      O          -0.02887141     0.08555775     0.02516252
    750      4      O          -0.03101061     0.08713313     0.02487771
    751      4      O          -0.02613510     0.08905371     0.02613462
    752      4      O          -0.02780915     0.08374164     0.02475833
    753      4      O          -0.03188656     0.08457828     0.02458660
    754      4      O          -0.02843144     0.08913160     0.02469256
    755      4      O          -0.02576229     0.08368612     0.02611665
    756      4      O          -0.02956183     0.08315546     0.02503475
    757      4      O           0.01452627    -0.05321985    -0.02044590
    758      4      O           0.01517095    -0.05214277    -0.01948572
    759      4      O           0.02326968    -0.05359532    -0.04386222
    760      4      O           0.01636232    -0.05754497    -0.02150103
    761      4      O           0.01771690    -0.05261918    -0.01991085
    762      4      O           0.02555301    -0.04601607    -0.03064481
    763      4      O           0.01441976    -0.06446305    -0.03663493
    764      4      O           0.01705927    -0.05436561    -0.02117374
    765      4      O          -0.00931032     0.09894698     0.03577936
    766      4      O          -0.00908256     0.09863451     0.03590796
    767      4      O          -0.01167351     0.09924754     0.03465527
    768      4      O          -0.00992994     0.09658789     0.03567307
    769      4      O          -0.00871596     0.09629087     0.03612914
    770      4      O          -0.01149581     0.09820814     0.03471690
    771      4      O          -0.01018951     0.09763788     0.03556647
    772      4      O          -0.00878029     0.09648687     0.03600372
    773      4      O           0.03181248    -0.10060681    -0.06146898
    774      4      O           0.03384699    -0.10222215    -0.06318940
    775      4      O           0.02406703    -0.10183124    -0.07587522
    776      4      O           0.03240662    -0.09376540    -0.06264387
    777      4      O           0.03147014    -0.10072014    -0.06141953
    778      4      O           0.02914451    -0.09404314    -0.07571643
    779      4      O           0.02721225    -0.10150578    -0.06292793
    780      4      O           0.02962055    -0.09897045    -0.05938861
 SUM OF ATOMIC FORCES           0.00019755    -0.00506999     0.14028232     0.14037405

 STRESS| Analytical stress tensor [GPa]
 STRESS|                        x                   y                   z
 STRESS|      x        1.39417238681E+01  -1.93171627929E+01  -8.37998421724E-01
 STRESS|      y       -1.93171627929E+01   3.02031617909E+01   1.20739433309E+00
 STRESS|      z       -8.37998421724E-01   1.20739433309E+00   1.09422281773E+01
 STRESS| 1/3 Trace                                             1.83623712788E+01
 STRESS| Determinant                                           5.22031744280E+02

 STRESS| Eigenvectors and eigenvalues of the analytical stress tensor [GPa]
 STRESS|                        1                   2                   3
 STRESS| Eigenvalues   1.11378661225E+00   1.08751754867E+01   4.30981517374E+01
 STRESS|      x           0.833105252470      0.022680927525     -0.552649268373
 STRESS|      y           0.553105884122     -0.039735064507      0.832162848004
 STRESS|      z           0.003085329084      0.998952801776      0.045648445420

 -------------------------------------------------------------------------------
 -                                                                             -
 -                                DBCSR STATISTICS                             -
 -                                                                             -
 -------------------------------------------------------------------------------
 COUNTER                                    TOTAL       BLAS       SMM       ACC
 flops    14 x    16 x    16              1720320       0.0%    100.0%      0.0%     
 flops    16 x    16 x  1632              6684672       0.0%    100.0%      0.0%     
 flops    16 x    16 x  1633              6688768       0.0%    100.0%      0.0%     
 flops    26 x    16 x    16             11714560       0.0%    100.0%      0.0%     
 flops    13 x    16 x    16             13312000       0.0%    100.0%      0.0%     
 flops    14 x    32 x    16            166871040       0.0%    100.0%      0.0%     
 flops    14 x    16 x    32            166871040       0.0%    100.0%      0.0%     
 flops    32 x    16 x  1632            641728512       0.0%    100.0%      0.0%     
 flops    32 x    16 x  1633            642121728       0.0%    100.0%      0.0%     
 flops    16 x    32 x  1632            655097856       0.0%    100.0%      0.0%     
 flops    16 x    32 x  1633            655499264       0.0%    100.0%      0.0%     
 flops    26 x    32 x    16           1136312320       0.0%    100.0%      0.0%     
 flops    26 x    16 x    32           1136312320       0.0%    100.0%      0.0%     
 flops    13 x    32 x    16           1291264000       0.0%    100.0%      0.0%     
 flops    13 x    16 x    32           1291264000       0.0%    100.0%      0.0%     
 flops    14 x    16 x    14           5080320000       0.0%    100.0%      0.0%     
 flops    14 x    16 x    13          17969515200       0.0%    100.0%      0.0%     
 flops    13 x    16 x    14          17969515200       0.0%    100.0%      0.0%     
 flops    14 x    16 x    26          20381961600       0.0%    100.0%      0.0%     
 flops    26 x    16 x    14          20381961600       0.0%    100.0%      0.0%     
 flops   130 x   400 x   400          22089600000       0.0%    100.0%      0.0%     
 flops   130 x   400 x   416          22973184000       0.0%    100.0%      0.0%     
 flops   130 x   416 x   400          22973184000       0.0%    100.0%      0.0%     
 flops   130 x   416 x   416          23892111360       0.0%    100.0%      0.0%     
 flops    14 x    14 x   400          31850784000       0.0%    100.0%      0.0%     
 flops    14 x    32 x    32          32706723840       0.0%    100.0%      0.0%     
 flops    14 x    14 x   416          33124815360       0.0%    100.0%      0.0%     
 flops   208 x   400 x   400          35343360000       0.0%    100.0%      0.0%     
 flops   208 x   400 x   416          36757094400       0.0%    100.0%      0.0%     
 flops   208 x   416 x   400          36757094400       0.0%    100.0%      0.0%     
 flops   208 x   416 x   416          38227378176       0.0%    100.0%      0.0%     
 flops    96 x   400 x   400          58245120000       0.0%    100.0%      0.0%     
 flops   117 x   400 x   400          59641920000       0.0%    100.0%      0.0%     
 flops    96 x   400 x   416          60574924800       0.0%    100.0%      0.0%     
 flops    96 x   416 x   400          60574924800       0.0%    100.0%      0.0%     
 flops   117 x   416 x   400          62027596800       0.0%    100.0%      0.0%     
 flops   117 x   400 x   416          62027596800       0.0%    100.0%      0.0%     
 flops    96 x   416 x   416          62997921792       0.0%    100.0%      0.0%     
 flops   117 x   416 x   416          64508700672       0.0%    100.0%      0.0%     
 flops   131 x   400 x   400          66778560000       0.0%    100.0%      0.0%     
 flops   131 x   400 x   416          69449702400       0.0%    100.0%      0.0%     
 flops   131 x   416 x   400          69449702400       0.0%    100.0%      0.0%     
 flops   209 x   400 x   400          71026560000       0.0%    100.0%      0.0%     
 flops   131 x   416 x   416          72227690496       0.0%    100.0%      0.0%     
 flops   209 x   400 x   416          73867622400       0.0%    100.0%      0.0%     
 flops   209 x   416 x   400          73867622400       0.0%    100.0%      0.0%     
 flops   130 x   400 x  1632          74001408000       0.0%    100.0%      0.0%     
 flops   130 x   400 x  1633          74046752000       0.0%    100.0%      0.0%     
 flops   209 x   416 x   416          76822327296       0.0%    100.0%      0.0%     
 flops   130 x   416 x  1632          76961464320       0.0%    100.0%      0.0%     
 flops   130 x   416 x  1633          77008622080       0.0%    100.0%      0.0%     
 flops   236 x   400 x   400          80202240000       0.0%    100.0%      0.0%     
 flops   236 x   400 x   416          83410329600       0.0%    100.0%      0.0%     
 flops   236 x   416 x   400          83410329600       0.0%    100.0%      0.0%     
 flops   236 x   416 x   416          86746742784       0.0%    100.0%      0.0%     
 flops   182 x   400 x   400          92776320000       0.0%    100.0%      0.0%     
 flops   182 x   400 x   416          96487372800       0.0%    100.0%      0.0%     
 flops   182 x   416 x   400          96487372800       0.0%    100.0%      0.0%     
 flops    13 x    16 x    13          98220096000       0.0%    100.0%      0.0%     
 flops   195 x   400 x   400          99403200000       0.0%    100.0%      0.0%     
 flops   182 x   416 x   416         100346867712       0.0%    100.0%      0.0%     
 flops   195 x   416 x   400         103379328000       0.0%    100.0%      0.0%     
 flops   195 x   400 x   416         103379328000       0.0%    100.0%      0.0%     
 flops   195 x   416 x   416         107514501120       0.0%    100.0%      0.0%     
 flops    14 x    13 x   400         112746961600       0.0%    100.0%      0.0%     
 flops    13 x    14 x   400         113619833600       0.0%    100.0%      0.0%     
 flops    14 x    13 x   416         117256840064       0.0%    100.0%      0.0%     
 flops    13 x    14 x   416         118164626944       0.0%    100.0%      0.0%     
 flops   208 x   400 x  1632         118402252800       0.0%    100.0%      0.0%     
 flops   208 x   400 x  1633         118474803200       0.0%    100.0%      0.0%     
 flops   208 x   416 x  1632         123138342912       0.0%    100.0%      0.0%     
 flops   208 x   416 x  1633         123213795328       0.0%    100.0%      0.0%     
 flops    14 x    26 x   400         126807699200       0.0%    100.0%      0.0%     
 flops    32 x    32 x  1632         127088984064       0.0%    100.0%      0.0%     
 flops    32 x    32 x  1633         127166857216       0.0%    100.0%      0.0%     
 flops   130 x   384 x   400         127236096000       0.0%    100.0%      0.0%     
 flops   130 x   400 x   384         127236096000       0.0%    100.0%      0.0%     
 flops    26 x    14 x   400         127728182400       0.0%    100.0%      0.0%     
 flops    14 x    26 x   416         131880007168       0.0%    100.0%      0.0%     
 flops   130 x   384 x   416         132325539840       0.0%    100.0%      0.0%     
 flops   130 x   416 x   384         132325539840       0.0%    100.0%      0.0%     
 flops    26 x    14 x   416         132837309696       0.0%    100.0%      0.0%     
 flops    26 x    16 x    13         169736299200       0.0%    100.0%      0.0%     
 flops    13 x    16 x    26         169736299200       0.0%    100.0%      0.0%     
 flops    14 x    14 x   384         183460515840       0.0%    100.0%      0.0%     
 flops    26 x    16 x    26         192663244800       0.0%    100.0%      0.0%     
 flops   117 x   400 x  1632         199803801600       0.0%    100.0%      0.0%     
 flops   196 x   400 x   400         199825920000       0.0%    100.0%      0.0%     
 flops   117 x   400 x  1633         199926230400       0.0%    100.0%      0.0%     
 flops   208 x   384 x   400         203577753600       0.0%    100.0%      0.0%     
 flops   208 x   400 x   384         203577753600       0.0%    100.0%      0.0%     
 flops   117 x   416 x  1632         207795953664       0.0%    100.0%      0.0%     
 flops   196 x   400 x   416         207818956800       0.0%    100.0%      0.0%     
 flops   196 x   416 x   400         207818956800       0.0%    100.0%      0.0%     
 flops   117 x   416 x  1633         207923279616       0.0%    100.0%      0.0%     
 flops   208 x   384 x   416         211720863744       0.0%    100.0%      0.0%     
 flops   208 x   416 x   384         211720863744       0.0%    100.0%      0.0%     
 flops   196 x   416 x   416         216131715072       0.0%    100.0%      0.0%     
 flops    26 x    32 x    32         222717214720       0.0%    100.0%      0.0%     
 flops   131 x   400 x  1632         223711948800       0.0%    100.0%      0.0%     
 flops   131 x   400 x  1633         223849027200       0.0%    100.0%      0.0%     
 flops   131 x   416 x  1632         232660426752       0.0%    100.0%      0.0%     
 flops   131 x   416 x  1633         232802988288       0.0%    100.0%      0.0%     
 flops   209 x   400 x  1632         237942988800       0.0%    100.0%      0.0%     
 flops   209 x   400 x  1633         238088787200       0.0%    100.0%      0.0%     
 flops   209 x   416 x  1632         247460708352       0.0%    100.0%      0.0%     
 flops   209 x   416 x  1633         247612338688       0.0%    100.0%      0.0%     
 flops    13 x    32 x    32         253087744000       0.0%    100.0%      0.0%     
 flops   236 x   400 x  1632         268682035200       0.0%    100.0%      0.0%     
 flops   236 x   400 x  1633         268846668800       0.0%    100.0%      0.0%     
 flops   236 x   416 x  1632         279429316608       0.0%    100.0%      0.0%     
 flops   236 x   416 x  1633         279600535552       0.0%    100.0%      0.0%     
 flops    32 x   400 x   400         310640640000       0.0%    100.0%      0.0%     
 flops   182 x   400 x  1632         310805913600       0.0%    100.0%      0.0%     
 flops   182 x   400 x  1633         310996358400       0.0%    100.0%      0.0%     
 flops    32 x   416 x   400         323066265600       0.0%    100.0%      0.0%     
 flops    32 x   400 x   416         323066265600       0.0%    100.0%      0.0%     
 flops   182 x   416 x  1632         323238150144       0.0%    100.0%      0.0%     
 flops   182 x   416 x  1633         323436212736       0.0%    100.0%      0.0%     
 flops   195 x   400 x  1632         333006336000       0.0%    100.0%      0.0%     
 flops   195 x   400 x  1633         333210384000       0.0%    100.0%      0.0%     
 flops    96 x   384 x   400         335491891200       0.0%    100.0%      0.0%     
 flops    96 x   400 x   384         335491891200       0.0%    100.0%      0.0%     
 flops    32 x   416 x   416         335988916224       0.0%    100.0%      0.0%     
 flops   117 x   384 x   400         343537459200       0.0%    100.0%      0.0%     
 flops   117 x   400 x   384         343537459200       0.0%    100.0%      0.0%     
 flops   195 x   416 x  1632         346326589440       0.0%    100.0%      0.0%     
 flops   195 x   416 x  1633         346538799360       0.0%    100.0%      0.0%     
 flops    96 x   384 x   416         348911566848       0.0%    100.0%      0.0%     
 flops    96 x   416 x   384         348911566848       0.0%    100.0%      0.0%     
 flops   117 x   416 x   384         357278957568       0.0%    100.0%      0.0%     
 flops   117 x   384 x   416         357278957568       0.0%    100.0%      0.0%     
 flops   131 x   384 x   400         384644505600       0.0%    100.0%      0.0%     
 flops   131 x   400 x   384         384644505600       0.0%    100.0%      0.0%     
 flops   131 x   384 x   416         400030285824       0.0%    100.0%      0.0%     
 flops   131 x   416 x   384         400030285824       0.0%    100.0%      0.0%     
 flops   209 x   384 x   400         409112985600       0.0%    100.0%      0.0%     
 flops   209 x   400 x   384         409112985600       0.0%    100.0%      0.0%     
 flops   209 x   384 x   416         425477505024       0.0%    100.0%      0.0%     
 flops   209 x   416 x   384         425477505024       0.0%    100.0%      0.0%     
 flops   130 x   384 x  1632         426248110080       0.0%    100.0%      0.0%     
 flops   130 x   384 x  1633         426509291520       0.0%    100.0%      0.0%     
 flops    96 x   400 x  1632         427150540800       0.0%    100.0%      0.0%     
 flops    96 x   400 x  1633         427412275200       0.0%    100.0%      0.0%     
 flops    96 x   416 x  1632         444236562432       0.0%    100.0%      0.0%     
 flops    96 x   416 x  1633         444508766208       0.0%    100.0%      0.0%     
 flops   236 x   384 x   400         461964902400       0.0%    100.0%      0.0%     
 flops   236 x   400 x   384         461964902400       0.0%    100.0%      0.0%     
 flops   236 x   384 x   416         480443498496       0.0%    100.0%      0.0%     
 flops   236 x   416 x   384         480443498496       0.0%    100.0%      0.0%     
 flops    64 x   400 x   400         524206080000       0.0%    100.0%      0.0%     
 flops   182 x   384 x   400         534391603200       0.0%    100.0%      0.0%     
 flops   182 x   400 x   384         534391603200       0.0%    100.0%      0.0%     
 flops    64 x   416 x   400         545174323200       0.0%    100.0%      0.0%     
 flops    64 x   400 x   416         545174323200       0.0%    100.0%      0.0%     
 flops   182 x   384 x   416         555767267328       0.0%    100.0%      0.0%     
 flops   182 x   416 x   384         555767267328       0.0%    100.0%      0.0%     
 flops   222 x   400 x   400         565833600000       0.0%    100.0%      0.0%     
 flops    64 x   416 x   416         566981296128       0.0%    100.0%      0.0%     
 flops   195 x   384 x   400         572562432000       0.0%    100.0%      0.0%     
 flops   195 x   400 x   384         572562432000       0.0%    100.0%      0.0%     
 flops   222 x   416 x   400         588466944000       0.0%    100.0%      0.0%     
 flops   222 x   400 x   416         588466944000       0.0%    100.0%      0.0%     
 flops   195 x   416 x   384         595464929280       0.0%    100.0%      0.0%     
 flops   195 x   384 x   416         595464929280       0.0%    100.0%      0.0%     
 flops   222 x   416 x   416         612005621760       0.0%    100.0%      0.0%     
 flops    13 x    13 x   400         632329048000       0.0%    100.0%      0.0%     
 flops    14 x    13 x   384         649422498816       0.0%    100.0%      0.0%     
 flops    13 x    14 x   384         654450241536       0.0%    100.0%      0.0%     
 flops    13 x    13 x   416         657622209920       0.0%    100.0%      0.0%     
 flops   196 x   400 x  1632         669428121600       0.0%    100.0%      0.0%     
 flops   196 x   400 x  1633         669838310400       0.0%    100.0%      0.0%     
 flops   208 x   384 x  1632         681996976128       0.0%    100.0%      0.0%     
 flops   208 x   384 x  1633         682414866432       0.0%    100.0%      0.0%     
 flops   196 x   416 x  1632         696205246464       0.0%    100.0%      0.0%     
 flops   196 x   416 x  1633         696631842816       0.0%    100.0%      0.0%     
 flops    14 x    26 x   384         730412347392       0.0%    100.0%      0.0%     
 flops   130 x   384 x   384         732879912960       0.0%    100.0%      0.0%     
 flops    26 x    14 x   384         735714330624       0.0%    100.0%      0.0%     
 flops    14 x    32 x    14         985582080000       0.0%    100.0%      0.0%     
 flops    13 x    26 x   400        1055896857600       0.0%    100.0%      0.0%     
 flops    26 x    13 x   400        1059286321600       0.0%    100.0%      0.0%     
 flops    13 x    26 x   416        1098132731904       0.0%    100.0%      0.0%     
 flops    26 x    13 x   416        1101657774464       0.0%    100.0%      0.0%     
 flops   117 x   384 x  1632        1150869897216       0.0%    100.0%      0.0%     
 flops   196 x   384 x   400        1150997299200       0.0%    100.0%      0.0%     
 flops   196 x   400 x   384        1150997299200       0.0%    100.0%      0.0%     
 flops   117 x   384 x  1633        1151575087104       0.0%    100.0%      0.0%     
 flops   208 x   384 x   384        1172607860736       0.0%    100.0%      0.0%     
 flops   196 x   384 x   416        1197037191168       0.0%    100.0%      0.0%     
 flops   196 x   416 x   384        1197037191168       0.0%    100.0%      0.0%     
 flops    26 x    26 x   400        1199460870400       0.0%    100.0%      0.0%     
 flops    26 x    26 x   416        1247439305216       0.0%    100.0%      0.0%     
 flops   131 x   384 x  1632        1288580825088       0.0%    100.0%      0.0%     
 flops   131 x   384 x  1633        1289370396672       0.0%    100.0%      0.0%     
 flops   209 x   384 x  1632        1370551615488       0.0%    100.0%      0.0%     
 flops   209 x   384 x  1633        1371391414272       0.0%    100.0%      0.0%     
 flops   236 x   384 x  1632        1547608522752       0.0%    100.0%      0.0%     
 flops   236 x   384 x  1633        1548556812288       0.0%    100.0%      0.0%     
 flops    32 x   384 x   400        1789290086400       0.0%    100.0%      0.0%     
 flops    32 x   400 x   384        1789290086400       0.0%    100.0%      0.0%     
 flops   182 x   384 x  1632        1790242062336       0.0%    100.0%      0.0%     
 flops   182 x   384 x  1633        1791339024384       0.0%    100.0%      0.0%     
 flops    32 x   416 x   384        1860861689856       0.0%    100.0%      0.0%     
 flops    32 x   384 x   416        1860861689856       0.0%    100.0%      0.0%     
 flops   222 x   400 x  1632        1895574528000       0.0%    100.0%      0.0%     
 flops   222 x   400 x  1633        1896736032000       0.0%    100.0%      0.0%     
 flops   195 x   384 x  1632        1918116495360       0.0%    100.0%      0.0%     
 flops   195 x   384 x  1633        1919291811840       0.0%    100.0%      0.0%     
 flops    96 x   384 x   384        1932433293312       0.0%    100.0%      0.0%     
 flops   222 x   416 x  1632        1971397509120       0.0%    100.0%      0.0%     
 flops   222 x   416 x  1633        1972605473280       0.0%    100.0%      0.0%     
 flops   117 x   384 x   384        1978775764992       0.0%    100.0%      0.0%     
 flops   131 x   384 x   384        2215552352256       0.0%    100.0%      0.0%     
 flops    32 x   400 x  1632        2278136217600       0.0%    100.0%      0.0%     
 flops    32 x   400 x  1633        2279532134400       0.0%    100.0%      0.0%     
 flops   209 x   384 x   384        2356490797056       0.0%    100.0%      0.0%     
 flops    32 x   416 x  1632        2369261666304       0.0%    100.0%      0.0%     
 flops    32 x   416 x  1633        2370713419776       0.0%    100.0%      0.0%     
 flops    96 x   384 x  1632        2460387115008       0.0%    100.0%      0.0%     
 flops    96 x   384 x  1633        2461894705152       0.0%    100.0%      0.0%     
 flops   236 x   384 x   384        2660917837824       0.0%    100.0%      0.0%     
 flops    64 x   384 x   400        3019427020800       0.0%    100.0%      0.0%     
 flops    64 x   400 x   384        3019427020800       0.0%    100.0%      0.0%     
 flops   182 x   384 x   384        3078095634432       0.0%    100.0%      0.0%     
 flops    64 x   416 x   384        3140204101632       0.0%    100.0%      0.0%     
 flops    64 x   384 x   416        3140204101632       0.0%    100.0%      0.0%     
 flops   222 x   384 x   400        3259201536000       0.0%    100.0%      0.0%     
 flops   222 x   400 x   384        3259201536000       0.0%    100.0%      0.0%     
 flops   195 x   384 x   384        3297959608320       0.0%    100.0%      0.0%     
 flops   222 x   416 x   384        3389569597440       0.0%    100.0%      0.0%     
 flops   222 x   384 x   416        3389569597440       0.0%    100.0%      0.0%     
 flops    13 x    32 x    14        3486085948800       0.0%    100.0%      0.0%     
 flops    14 x    32 x    13        3486085948800       0.0%    100.0%      0.0%     
 flops    13 x    13 x   384        3642215316480       0.0%    100.0%      0.0%     
 flops    64 x   400 x  1632        3844354867200       0.0%    100.0%      0.0%     
 flops    64 x   400 x  1633        3846710476800       0.0%    100.0%      0.0%     
 flops   196 x   384 x  1632        3855905980416       0.0%    100.0%      0.0%     
 flops   196 x   384 x  1633        3858268667904       0.0%    100.0%      0.0%     
 flops    26 x    32 x    14        3954100550400       0.0%    100.0%      0.0%     
 flops    14 x    32 x    26        3954100550400       0.0%    100.0%      0.0%     
 flops    64 x   416 x  1632        3998129061888       0.0%    100.0%      0.0%     
 flops    64 x   416 x  1633        4000578895872       0.0%    100.0%      0.0%     
 flops    13 x    26 x   384        6081965899776       0.0%    100.0%      0.0%     
 flops    26 x    13 x   384        6101489212416       0.0%    100.0%      0.0%     
 flops   196 x   384 x   384        6629744443392       0.0%    100.0%      0.0%     
 flops    26 x    26 x   384        6908894613504       0.0%    100.0%      0.0%     
 flops    32 x   384 x   384       10306310897664       0.0%    100.0%      0.0%     
 flops   222 x   384 x  1632       10918509281280       0.0%    100.0%      0.0%     
 flops   222 x   384 x  1633       10925199544320       0.0%    100.0%      0.0%     
 flops    32 x   384 x  1632       13122064613376       0.0%    100.0%      0.0%     
 flops    32 x   384 x  1633       13130105094144       0.0%    100.0%      0.0%     
 flops    64 x   384 x   384       17391899639808       0.0%    100.0%      0.0%     
 flops   222 x   384 x   384       18773000847360       0.0%    100.0%      0.0%     
 flops    13 x    32 x    13       19054698624000       0.0%    100.0%      0.0%     
 flops    64 x   384 x  1632       22143484035072       0.0%    100.0%      0.0%     
 flops    64 x   384 x  1633       22157052346368       0.0%    100.0%      0.0%     
 flops    13 x    32 x    26       32928842044800       0.0%    100.0%      0.0%     
 flops    26 x    32 x    13       32928842044800       0.0%    100.0%      0.0%     
 flops    26 x    32 x    26       37376669491200       0.0%    100.0%      0.0%     
 flops inhomo. stacks             131039051520000     100.0%      0.0%      0.0%
 flops total                       608.255314E+12      21.5%     78.5%      0.0%
 flops max/rank                     12.817495E+12      30.4%     69.6%      0.0%
 matmuls inhomo. stacks                   1199872     100.0%      0.0%      0.0%
 matmuls total                         6917803372       0.0%    100.0%      0.0%
 number of processed stacks              24143811       5.0%     95.0%      0.0%
 average stack size                                     1.0     301.5       0.0
 marketing flops                   776.573641E+12
 -------------------------------------------------------------------------------
 # multiplications                           2358
 max memory usage/rank               2.148790E+09
 # max total images/rank                        1
 # max 3D layers                                1
 # MPI messages exchanged                 2112768
 MPI messages size (bytes):
  total size                         8.054370E+12
  min size                           0.000000E+00
  max size                          21.333512E+06
  average size                       3.812236E+06
 MPI breakdown and total messages size (bytes):
             size <=      128                2576                        0
       128 < size <=     8192                   0                        0
      8192 < size <=    32768                   0                        0
     32768 < size <=   131072                 112                 11153408
    131072 < size <=  4194304             1088192            1324112025600
   4194304 < size <= 16777216              973056            5688992332800
  16777216 < size                           48832            1041120214400
 -------------------------------------------------------------------------------
 -                                                                             -
 -                      DBCSR MESSAGE PASSING PERFORMANCE                      -
 -                                                                             -
 -------------------------------------------------------------------------------
 ROUTINE             CALLS      AVE VOLUME [Bytes]
 MP_Bcast              261                     12.
 MP_Allreduce        13281                    114.
 MP_Alltoall          7773                 363020.
 MP_ISend            75448                1731151.
 MP_IRecv            75448                1723455.
 -------------------------------------------------------------------------------

 -------------------------------------------------------------------------------
 -                                                                             -
 -                                DBM STATISTICS                               -
 -                                                                             -
 -------------------------------------------------------------------------------
    M  x    N  x    K                                          COUNT     PERCENT
 -------------------------------------------------------------------------------

 -------------------------------------------------------------------------------
 -                                                                             -
 -                                GRID STATISTICS                              -
 -                                                                             -
 -------------------------------------------------------------------------------
 LP    KERNEL             BACKEND                              COUNT     PERCENT
 5     collocate general  CPU                               58661604      24.95%
 5     integrate general  CPU                               58118441      24.72%
 4     collocate general  CPU                               32761908      13.93%
 4     integrate general  CPU                               32458557      13.80%
 6     collocate general  CPU                               26090856      11.10%
 6     integrate general  CPU                               25849274      10.99%
 8     integrate general  CPU                                 543163       0.23%
 7     integrate general  CPU                                 303351       0.13%
 9     integrate general  CPU                                 241582       0.10%
 0     collocate general  CPU                                  49920       0.02%
 3     integrate general  CPU                                  49920       0.02%
 -------------------------------------------------------------------------------

 MEMORY| Estimated peak process memory [MiB]                                2050

 -------------------------------------------------------------------------------
 -                                                                             -
 -                         MESSAGE PASSING PERFORMANCE                         -
 -                                                                             -
 -------------------------------------------------------------------------------

 ROUTINE             CALLS      AVE VOLUME [Bytes]
 MP_Group                5
 MP_Bcast             8399                 191074.
 MP_Allreduce        21840                   2370.
 MP_Sync               111
 MP_Alltoall          2828               27187760.
 MP_SendRecv         20412                 139197.
 MP_ISendRecv        20412                 139197.
 MP_Wait             52528
 MP_ISend            30380                 489071.
 MP_IRecv            30380                 489071.
 -------------------------------------------------------------------------------


 -------------------------------------------------------------------------------
 -                                                                             -
 -                           R E F E R E N C E S                               -
 -                                                                             -
 -------------------------------------------------------------------------------
 
 CP2K version 2024.3, the CP2K developers group (2024).
 CP2K is freely available from https://www.cp2k.org/ .
 
 T. D. Kuehne, M. Iannuzzi, M. Del Ben, V. V. Rybkin, P. Seewald, F. Stein, T. 
 Laino, R. Z. Khaliullin, O. Schuett, F. Schiffmann, D. Golze, J. Wilhelm, S. 
 Chulkov, M. H. Bani-Hashemian, V. Weber, U. Borstnik, M. Taillefumier, A. S. 
 Jakobovits, A. Lazzaro, H. Pabst, T. Mueller, R. Schade, M. Guidon, S. 
 Andermatt, N. Holmberg, G. K. Schenter, A. Hehn, A. Bussy, F. Belleflamme, G. 
 Tabacchi, A. Gloess, M. Lass, I. Bethune, C. J. Mundy, C. Plessl, M. Watkins, 
 J. VandeVondele, M. Krack, J. Hutter.
 J. Chem. Phys. 152, 194103 (2020).
 CP2K: An electronic structure and molecular dynamics software package - 
 Quickstep: Efficient and accurate electronic structure calculations.
 https://doi.org/10.1063/5.0007045

 O. Schuett, P. Messmer, J. Hutter, J. VandeVondele.
 Electronic Structure Calculations on Graphics Processing Units, 173-190 (2016).
 GPU-Accelerated Sparse Matrix-Matrix Multiplication for Linear Scaling Density 
 Functional Theory.
 https://doi.org/10.1002/9781118670712.ch8

 A. Heinecke, G. Henry, M. Hutchinson, H. Pabst.
 Proceedings of Intl. Supercomputing Conference, 981-991 (2016).
 LIBXSMM: Accelerating Small Matrix Multiplications by Runtime Code Generation.
 https://doi.org/10.1109/SC.2016.83

 J. Hutter, M. Iannuzzi, F. Schiffmann, J. VandeVondele.
 WIREs Comput Mol Sci. 4, 15-25 (2014).
 CP2K: atomistic simulations of condensed matter systems.
 https://doi.org/10.1002/wcms.1159

 U. Borstnik, J. VandeVondele, V. Weber, J. Hutter.
 Parallel Comput. 40, 47-58 (2014).
 Sparse matrix multiplication: The distributed block-compressed sparse row 
 library.
 https://doi.org/10.1016/j.parco.2014.03.012

 A. Marek, V. Blum, R. Johanni, V. Havu, B. Lang, T. Auckenthaler, A. Heinecke, 
 H. Bungartz, H. Lederer.
 J. Phys. Condens. Matter 26, 213201 (2014).
 The ELPA library: scalable parallel eigenvalue solutions for electronic 
 structure theory and computational science.
 https://doi.org/10.1088/0953-8984/26/21/213201

 J. P. Perdew, A. Ruzsinszky, G. I. Csonka, O. A. Vydrov, G. E. Scuseria, L. A. 
 Constantin, X. Zhou, K. Burke.
 Phys. Rev. Lett. 100, 136406-136409 (2008).
 Restoring the Density-Gradient Expansion for Exchange in Solids and Surfaces.
 https://doi.org/10.1103/PhysRevLett.100.136406

 J. VandeVondele, J. Hutter.
 J. Chem. Phys. 127, 114105 (2007).
 Gaussian basis sets for accurate calculations on molecular systems in gas and 
 condensed phases.
 https://doi.org/10.1063/1.2770708

 J. VandeVondele, M. Krack, F. Mohamed, M. Parrinello, T. Chassaing, J. Hutter.
 Comput. Phys. Commun. 167, 103-128 (2005).
 QUICKSTEP: Fast and accurate density functional calculations using a mixed 
 Gaussian and plane waves approach.
 https://doi.org/10.1016/j.cpc.2004.12.014

 M. Krack.
 Theor. Chem. Acc. 114, 145-152 (2005).
 Pseudopotentials for H to Kr optimized for gradient-corrected 
 exchange-correlation functionals.
 https://doi.org/10.1007/s00214-005-0655-y

 M. Frigo, S. G. Johnson.
 Proc. IEEE 93, 216-231 (2005).
 The design and implementation of FFTW3.
 https://doi.org/10.1109/JPROC.2004.840301

 J. VandeVondele, J. Hutter.
 J. Chem. Phys. 118, 4365-4369 (2003).
 An efficient orbital transformation method for electronic structure 
 calculations.
 https://doi.org/10.1063/1.1543154

 C. Hartwigsen, S. Goedecker, J. Hutter.
 Phys. Rev. B 58, 3641-3662 (1998).
 Relativistic separable dual-space Gaussian pseudopotentials from H to Rn.
 https://doi.org/10.1103/PhysRevB.58.3641

 G. Lippert, J. Hutter, M. Parrinello.
 Mol. Phys. 92, 477-487 (1997).
 A hybrid Gaussian and plane wave density functional scheme.
 https://doi.org/10.1080/002689797170220

 S. Goedecker, M. Teter, J. Hutter.
 Phys. Rev. B 54, 1703-1710 (1996).
 Separable dual-space Gaussian pseudopotentials.
 https://doi.org/10.1103/PhysRevB.54.1703

 J. P. Perdew, K. Burke, M. Ernzerhof.
 Phys. Rev. Lett. 77, 3865-3868 (1996).
 Generalized gradient approximation made simple.
 https://doi.org/10.1103/PhysRevLett.77.3865


 -------------------------------------------------------------------------------
 -                                                                             -
 -                                T I M I N G                                  -
 -                                                                             -
 -------------------------------------------------------------------------------
 SUBROUTINE                       CALLS  ASD         SELF TIME        TOTAL TIME
                                MAXIMUM       AVERAGE  MAXIMUM  AVERAGE  MAXIMUM
 CP2K                                 1  1.0    1.141    1.161  426.372  426.375
 qs_forces                            1  2.0    0.002    0.002  424.289  424.292
 qs_energies                          1  3.0    0.000    0.000  402.995  403.010
 scf_env_do_scf                       1  4.0    0.000    0.000  397.189  397.192
 scf_env_do_scf_inner_loop          107  5.0    0.003    0.014  385.041  385.044
 qs_scf_new_mos                     107  6.0    0.001    0.001  191.804  192.465
 qs_scf_loop_do_ot                  107  7.0    0.001    0.001  191.803  192.464
 ot_scf_mini                        107  8.0    0.005    0.005  181.827  182.599
 dbcsr_multiply_generic            2358 11.1    0.182    0.205  149.550  152.048
 rebuild_ks_matrix                  108  7.0    0.001    0.001  122.527  123.960
 qs_ks_build_kohn_sham_matrix       108  8.0    0.026    0.043  122.526  123.959
 multiply_cannon                   2358 12.1    0.367    0.419  110.649  121.381
 qs_ks_update_qs_env                109  6.0    0.002    0.002  119.814  121.247
 multiply_cannon_loop              2358 13.1    0.261    0.319  102.608  111.147
 multiply_cannon_multrec          18864 14.1   87.333   96.243   87.357   96.267
 ot_mini                            107  9.0    0.001    0.002   91.822   92.657
 qs_rho_update_rho_low              108  6.0    0.001    0.001   75.956   76.045
 calculate_rho_elec                 108  7.0    0.542    0.655   75.955   76.044
 qs_ot_get_p                        109  9.0    0.001    0.002   65.084   66.318
 sum_up_and_integrate               108  9.0    0.003    0.004   64.842   64.881
 integrate_v_rspace                 108 10.0    0.004    0.005   64.744   64.781
 qs_ot_get_derivative               107 10.0    0.002    0.002   61.522   62.236
 grid_collocate_task_list           108  8.0   55.631   58.783   55.631   58.783
 qs_ot_p2m_diag                     106 10.0    1.299    1.493   52.221   52.541
 grid_integrate_task_list           108 11.0   47.342   49.811   47.342   49.811
 cp_dbcsr_syevd                     106 11.0    0.016    0.018   46.404   46.412
 cp_fm_diag_elpa                    106 12.0    0.001    0.002   45.506   45.551
 cp_fm_diag_elpa_base               106 13.0   45.184   45.265   45.441   45.441
 qs_ot_get_derivative_diag          104 11.0    0.005    0.006   43.282   44.112
 fft_wrap_pw1pw2                   2161 11.1    0.042    0.048   42.027   42.210
 fft_wrap_pw1pw2_300               1297 12.6    1.947    2.152   40.449   40.672
 fft3d_ps                          2161 13.1   12.647   15.026   33.283   33.664
 qs_vxc_create                      108  9.0    0.002    0.003   33.410   33.414
 xc_vxc_pw_create                   108 10.0    0.729    0.837   33.408   33.412
 ot_diis_step                       107 10.0    0.007    0.008   29.519   29.519
 apply_preconditioner_dbcsr         109 11.0    0.000    0.000   24.433   25.831
 apply_single                       109 12.0    0.001    0.001   24.433   25.830
 make_m2s                          4716 12.1    0.102    0.115   21.361   23.655
 xc_pw_derive                       648 12.0    0.005    0.006   23.125   23.367
 mp_waitall_1                    210788 15.1   17.378   23.178   17.378   23.178
 density_rs2pw                      108  8.0    0.006    0.007   18.158   22.331
 mp_sum_d                          6400 11.5   12.377   19.188   12.377   19.188
 mp_alltoall_z22v                  2161 15.1   17.583   18.712   17.583   18.712
 xc_rho_set_and_dset_create         108 11.0    0.519    0.634   17.027   18.289
 build_core_hamiltonian_matrix_       1  3.0    0.000    0.000   12.076   18.218
 make_images                       4716 13.1    1.343    1.760   16.437   17.752
 mp_sum_l                         11765 11.8   12.810   17.019   12.810   17.019
 build_core_ppnl_forces               1  4.0   10.850   16.961   10.850   16.961
 mp_waitany                       30380 12.5   11.291   16.343   11.291   16.343
 transfer_rs2pw                     541  9.0    0.010    0.012   11.404   15.866
 xc_pw_divergence                   108 11.0    0.003    0.003   15.211   15.376
 potential_pw2rs                    108 11.0    0.033    0.037   14.182   14.206
 mp_irecv_dv                      65725 14.0    6.828   13.087    6.828   13.087
 transfer_rs2pw_300                 109 10.0    1.362    1.616    7.972   12.333
 calculate_ecore_overlap              2  4.0    0.000    0.000    6.138   12.247
 init_scf_loop                        2  5.0    0.000    0.000   12.131   12.132
 x_to_yz                            972 14.4    1.724    2.125   11.681   12.090
 qs_ot_get_orbitals                 107  9.0    0.001    0.001   11.739   11.983
 calculate_dm_sparse                108  8.0    0.001    0.001   10.126   10.733
 transfer_pw2rs                     541 12.0    0.007    0.008   10.172   10.189
 make_images_data                  4716 14.1    0.069    0.082    8.501    9.895
 yz_to_x                            757 14.1    1.182    1.224    8.791    9.422
 dbcsr_make_dense_low              6268 14.1    0.056    0.064    6.306    9.386
 make_dense_data                   6268 15.1    6.019    9.090    6.232    9.309
 mp_allgather_i34                  2358 13.1    5.641    8.976    5.641    8.976
 hybrid_alltoall_any               4836 15.1    0.262    2.096    7.666    8.899
 prepare_preconditioner               2  6.0    0.000    0.000    8.591    8.616
 make_preconditioner                  2  7.0    0.000    0.001    8.591    8.616
 -------------------------------------------------------------------------------

 The number of warnings for this run is : 0
 
 -------------------------------------------------------------------------------
  **** **** ******  **  PROGRAM ENDED AT                 2026-08-31 15:59:14.303
 ***** ** ***  *** **   PROGRAM RAN ON                                 nid002618
 **    ****   ******    PROGRAM RAN BY                                    agne_r
 ***** **    ** ** **   PROGRAM PROCESS ID                                 93620
  **** **  *******  **  PROGRAM STOPPED IN /mnt/lustre/a2fs-work3/work/e89/e89/a
                                           gne_r/Crystalline_HfO2_Interfaces/Cla
                                           ude/HfO2_STO_interfaces/V4_lattice_ma
                                           tches/updated/V4_lattice_matches/STO_
                                           HfO2_m111_pbesol_matches/configs/m05_
                                           A0304_eps1p6
