Sr60 Hf160 Ti60 O500
1.0
  17.4479521038340160    0.0000000000000000    0.0000000000000011
   8.7239760519170080   17.4479521038340160    0.0000000000000012
   0.0000000000000000    0.0000000000000000   46.9104457696443760
Sr Hf Ti O
60 160 60 500
direct
  -0.0000000000000000    0.0000000000000000    0.2031722046074198 Sr
  -0.0000000000000000    0.2000000000000000    0.2031722046074198 Sr
  -0.0000000000000000    0.4000000000000000    0.2031722046074198 Sr
  -0.0000000000000000    0.6000000000000000    0.2031722046074198 Sr
  -0.0000000000000000    0.8000000000000000    0.2031722046074198 Sr
   0.2500000000000000    0.1000000000000000    0.2031722046074198 Sr
   0.2500000000000000    0.3000000000000000    0.2031722046074198 Sr
   0.2500000000000000    0.4999999999999999    0.2031722046074198 Sr
   0.2500000000000000    0.7000000000000001    0.2031722046074198 Sr
   0.2500000000000000    0.9000000000000000    0.2031722046074198 Sr
   0.5000000000000000    0.0000000000000000    0.2031722046074197 Sr
   0.5000000000000000    0.2000000000000000    0.2031722046074197 Sr
   0.5000000000000000    0.4000000000000000    0.2031722046074197 Sr
   0.5000000000000000    0.6000000000000000    0.2031722046074197 Sr
   0.5000000000000000    0.7999999999999999    0.2031722046074197 Sr
   0.7500000000000000    0.1000000000000000    0.2031722046074198 Sr
   0.7500000000000000    0.3000000000000000    0.2031722046074198 Sr
   0.7500000000000000    0.5000000000000001    0.2031722046074198 Sr
   0.7500000000000000    0.7000000000000000    0.2031722046074198 Sr
   0.7500000000000000    0.9000000000000001    0.2031722046074198 Sr
  -0.0000000000000000    0.0000000000000001    0.2863409026068314 Sr
  -0.0000000000000000    0.2000000000000001    0.2863409026068314 Sr
  -0.0000000000000000    0.4000000000000001    0.2863409026068314 Sr
  -0.0000000000000000    0.6000000000000000    0.2863409026068314 Sr
  -0.0000000000000000    0.8000000000000000    0.2863409026068314 Sr
   0.2500000000000000    0.1000000000000000    0.2863409026068314 Sr
   0.2500000000000000    0.3000000000000001    0.2863409026068314 Sr
   0.2500000000000000    0.4999999999999999    0.2863409026068314 Sr
   0.2500000000000000    0.7000000000000001    0.2863409026068314 Sr
   0.2500000000000000    0.9000000000000000    0.2863409026068314 Sr
   0.5000000000000000    0.0000000000000000    0.2863409026068314 Sr
   0.5000000000000000    0.2000000000000001    0.2863409026068314 Sr
   0.5000000000000000    0.4000000000000000    0.2863409026068314 Sr
   0.5000000000000000    0.6000000000000000    0.2863409026068314 Sr
   0.5000000000000000    0.7999999999999999    0.2863409026068314 Sr
   0.7500000000000000    0.1000000000000001    0.2863409026068315 Sr
   0.7500000000000000    0.3000000000000000    0.2863409026068315 Sr
   0.7500000000000000    0.5000000000000001    0.2863409026068315 Sr
   0.7500000000000000    0.7000000000000000    0.2863409026068315 Sr
   0.7500000000000000    0.9000000000000001    0.2863409026068315 Sr
  -0.0000000000000001    0.0000000000000001    0.3695096006062432 Sr
  -0.0000000000000001    0.2000000000000001    0.3695096006062432 Sr
  -0.0000000000000001    0.4000000000000001    0.3695096006062432 Sr
  -0.0000000000000001    0.6000000000000002    0.3695096006062432 Sr
  -0.0000000000000001    0.8000000000000003    0.3695096006062432 Sr
   0.2499999999999999    0.1000000000000001    0.3695096006062432 Sr
   0.2499999999999999    0.3000000000000000    0.3695096006062432 Sr
   0.2499999999999999    0.5000000000000001    0.3695096006062432 Sr
   0.2499999999999999    0.7000000000000002    0.3695096006062432 Sr
   0.2499999999999999    0.9000000000000000    0.3695096006062432 Sr
   0.4999999999999999    0.0000000000000001    0.3695096006062432 Sr
   0.4999999999999999    0.2000000000000001    0.3695096006062432 Sr
   0.4999999999999999    0.4000000000000001    0.3695096006062432 Sr
   0.4999999999999999    0.6000000000000002    0.3695096006062432 Sr
   0.4999999999999999    0.8000000000000000    0.3695096006062432 Sr
   0.7500000000000000    0.1000000000000001    0.3695096006062432 Sr
   0.7500000000000000    0.3000000000000003    0.3695096006062432 Sr
   0.7500000000000000    0.5000000000000002    0.3695096006062432 Sr
   0.7500000000000000    0.7000000000000000    0.3695096006062432 Sr
   0.7500000000000000    0.9000000000000001    0.3695096006062432 Sr
   0.6308769972568684    0.2178168245465915    0.7489705101040287 Hf
   0.8808769972568685    0.4678168245465915    0.7489705101040287 Hf
   1.2558769972568684    0.3428168245465916    0.7489705101040287 Hf
   0.7558769972568686    0.8428168245465917    0.7489705101040287 Hf
   1.1308769972568684    0.7178168245465915    0.7489705101040287 Hf
   0.5058769972568685    0.5928168245465917    0.7489705101040287 Hf
   1.0058769972568689    1.0928168245465915    0.7489705101040287 Hf
   1.3808769972568686    0.9678168245465915    0.7489705101040287 Hf
   0.8178318148711305    0.1213645825218131    0.7524044047459404 Hf
   1.0678318148711308    0.3713645825218131    0.7524044047459404 Hf
   0.4428318148711307    0.2463645825218131    0.7524044047459404 Hf
   0.9428318148711308    0.7463645825218131    0.7524044047459404 Hf
   1.3178318148711310    0.6213645825218131    0.7524044047459404 Hf
   0.6928318148711309    0.4963645825218131    0.7524044047459402 Hf
   1.1928318148711308    0.9963645825218130    0.7524044047459404 Hf
   0.5678318148711310    0.8713645825218133    0.7524044047459404 Hf
   0.5090091204720797    1.0752561852332050    0.7579423180105347 Hf
   0.7590091204720795    0.3252561852332051    0.7579423180105347 Hf
   1.1340091204720797    0.2002561852332052    0.7579423180105347 Hf
   0.6340091204720796    0.7002561852332051    0.7579423180105347 Hf
   1.0090091204720797    0.5752561852332051    0.7579423180105347 Hf
   1.3840091204720799    0.4502561852332053    0.7579423180105345 Hf
   0.8840091204720799    0.9502561852332051    0.7579423180105347 Hf
   1.2590091204720799    0.8252561852332051    0.7579423180105345 Hf
   0.9396996916559195    0.2639252218351995    0.7434325968394344 Hf
   1.1896996916559195    0.5139252218351994    0.7434325968394344 Hf
   0.5646996916559197    0.3889252218351995    0.7434325968394344 Hf
   1.0646996916559197    0.8889252218351995    0.7434325968394344 Hf
   0.4396996916559198    0.7639252218351995    0.7434325968394344 Hf
   0.8146996916559195    0.6389252218351995    0.7434325968394344 Hf
   1.3146996916559193    0.1389252218351996    0.7434325968394344 Hf
   0.6896996916559197    1.0139252218351995    0.7434325968394344 Hf
   0.8368042002888683    0.2713621763136926    0.6825981838894567 Hf
   1.0868042002888683    0.5213621763136926    0.6825981838894568 Hf
   1.4618042002888683    0.3963621763136927    0.6825981838894566 Hf
   0.9618042002888684    0.8963621763136926    0.6825981838894568 Hf
   1.3368042002888685    0.7713621763136926    0.6825981838894568 Hf
   0.7118042002888685    0.6463621763136927    0.6825981838894566 Hf
   1.2118042002888687    1.1463621763136926    0.6825981838894567 Hf
   1.5868042002888683    1.0213621763136926    0.6825981838894566 Hf
   1.0237590179031306    0.1749099342889142    0.6860320785313683 Hf
   1.2737590179031304    0.4249099342889143    0.6860320785313684 Hf
   0.6487590179031305    0.2999099342889142    0.6860320785313684 Hf
   1.1487590179031306    0.7999099342889143    0.6860320785313685 Hf
   1.5237590179031306    0.6749099342889142    0.6860320785313684 Hf
   0.8987590179031306    0.5499099342889143    0.6860320785313683 Hf
   1.3987590179031308    1.0499099342889142    0.6860320785313684 Hf
   0.7737590179031307    0.9249099342889143    0.6860320785313683 Hf
   0.7149363235040794    1.1288015370003062    0.6915699917959628 Hf
   0.9649363235040795    0.3788015370003062    0.6915699917959626 Hf
   1.3399363235040798    0.2538015370003063    0.6915699917959626 Hf
   0.8399363235040794    0.7538015370003063    0.6915699917959628 Hf
   1.2149363235040795    0.6288015370003064    0.6915699917959628 Hf
   1.5899363235040798    0.5038015370003063    0.6915699917959626 Hf
   1.0899363235040800    1.0038015370003064    0.6915699917959628 Hf
   1.4649363235040798    0.8788015370003064    0.6915699917959626 Hf
   1.1456268946879193    0.3174705736023006    0.6770602706248623 Hf
   1.3956268946879196    0.5674705736023007    0.6770602706248623 Hf
   0.7706268946879198    0.4424705736023006    0.6770602706248623 Hf
   1.2706268946879198    0.9424705736023007    0.6770602706248623 Hf
   0.6456268946879193    0.8174705736023006    0.6770602706248624 Hf
   1.0206268946879196    0.6924705736023006    0.6770602706248623 Hf
   1.5206268946879191    0.1924705736023008    0.6770602706248623 Hf
   0.8956268946879196    1.0674705736023007    0.6770602706248625 Hf
   1.0427314033208681    0.3249075280807938    0.6162258576748848 Hf
   1.2927314033208683    0.5749075280807938    0.6162258576748848 Hf
   1.6677314033208681    0.4499075280807938    0.6162258576748848 Hf
   1.1677314033208683    0.9499075280807939    0.6162258576748849 Hf
   1.5427314033208679    0.8249075280807939    0.6162258576748849 Hf
   0.9177314033208682    0.6999075280807939    0.6162258576748849 Hf
   1.4177314033208681    1.1999075280807936    0.6162258576748849 Hf
   1.7927314033208681    1.0749075280807938    0.6162258576748848 Hf
   1.2296862209351302    0.2284552860560154    0.6196597523167965 Hf
   1.4796862209351305    0.4784552860560153    0.6196597523167965 Hf
   0.8546862209351305    0.3534552860560154    0.6196597523167964 Hf
   1.3546862209351305    0.8534552860560155    0.6196597523167964 Hf
   1.7296862209351305    0.7284552860560154    0.6196597523167966 Hf
   1.1046862209351305    0.6034552860560155    0.6196597523167964 Hf
   1.6046862209351307    1.1034552860560154    0.6196597523167966 Hf
   0.9796862209351306    0.9784552860560155    0.6196597523167964 Hf
   0.9208635265360796    1.1823468887674073    0.6251976655813908 Hf
   1.1708635265360796    0.4323468887674074    0.6251976655813907 Hf
   1.5458635265360796    0.3073468887674075    0.6251976655813907 Hf
   1.0458635265360796    0.8073468887674075    0.6251976655813907 Hf
   1.4208635265360796    0.6823468887674075    0.6251976655813907 Hf
   1.7958635265360796    0.5573468887674076    0.6251976655813907 Hf
   1.2958635265360798    1.0573468887674076    0.6251976655813908 Hf
   1.6708635265360796    0.9323468887674075    0.6251976655813908 Hf
   1.3515540977199192    0.3710159253694018    0.6106879444102904 Hf
   1.6015540977199196    0.6210159253694019    0.6106879444102904 Hf
   0.9765540977199191    0.4960159253694018    0.6106879444102904 Hf
   1.4765540977199192    0.9960159253694019    0.6106879444102905 Hf
   0.8515540977199191    0.8710159253694019    0.6106879444102905 Hf
   1.2265540977199192    0.7460159253694019    0.6106879444102904 Hf
   1.7265540977199190    0.2460159253694019    0.6106879444102905 Hf
   1.1015540977199192    1.1210159253694019    0.6106879444102904 Hf
   1.2486586063528680    0.3784528798478949    0.5498535314603128 Hf
   1.4986586063528677    0.6284528798478950    0.5498535314603130 Hf
   1.8736586063528680    0.5034528798478949    0.5498535314603129 Hf
   1.3736586063528680    1.0034528798478950    0.5498535314603130 Hf
   1.7486586063528680    0.8784528798478950    0.5498535314603129 Hf
   1.1236586063528682    0.7534528798478952    0.5498535314603128 Hf
   1.6236586063528682    1.2534528798478948    0.5498535314603129 Hf
   1.9986586063528680    1.1284528798478950    0.5498535314603129 Hf
   1.4356134239671299    0.2820006378231165    0.5532874261022246 Hf
   1.6856134239671303    0.5320006378231166    0.5532874261022246 Hf
   1.0606134239671305    0.4070006378231166    0.5532874261022245 Hf
   1.5606134239671303    0.9070006378231167    0.5532874261022247 Hf
   1.9356134239671305    0.7820006378231166    0.5532874261022245 Hf
   1.3106134239671303    0.6570006378231166    0.5532874261022245 Hf
   1.8106134239671303    1.1570006378231166    0.5532874261022245 Hf
   1.1856134239671305    1.0320006378231166    0.5532874261022246 Hf
   1.1267907295680792    1.2358922405345085    0.5588253393668190 Hf
   1.3767907295680792    0.4858922405345085    0.5588253393668189 Hf
   1.7517907295680788    0.3608922405345085    0.5588253393668189 Hf
   1.2517907295680792    0.8608922405345086    0.5588253393668190 Hf
   1.6267907295680790    0.7358922405345085    0.5588253393668190 Hf
   2.0017907295680795    0.6108922405345087    0.5588253393668188 Hf
   1.5017907295680795    1.1108922405345085    0.5588253393668190 Hf
   1.8767907295680795    0.9858922405345087    0.5588253393668188 Hf
   1.5574813007519190    0.4245612771365029    0.5443156181957185 Hf
   1.8074813007519190    0.6745612771365029    0.5443156181957185 Hf
   1.1824813007519195    0.5495612771365030    0.5443156181957185 Hf
   1.6824813007519190    1.0495612771365030    0.5443156181957185 Hf
   1.0574813007519197    0.9245612771365030    0.5443156181957185 Hf
   1.4324813007519195    0.7995612771365030    0.5443156181957185 Hf
   1.9324813007519193    0.2995612771365029    0.5443156181957185 Hf
   1.3074813007519195    1.1745612771365030    0.5443156181957185 Hf
   1.4545858093848676    0.4319982316149961    0.4834812052457410 Hf
   1.7045858093848676    0.6819982316149961    0.4834812052457411 Hf
   2.0795858093848674    0.5569982316149961    0.4834812052457411 Hf
   1.5795858093848678    1.0569982316149960    0.4834812052457411 Hf
   1.9545858093848676    0.9319982316149961    0.4834812052457411 Hf
   1.3295858093848678    0.8069982316149962    0.4834812052457411 Hf
   1.8295858093848676    1.3069982316149960    0.4834812052457411 Hf
   2.2045858093848678    1.1819982316149962    0.4834812052457410 Hf
   1.6415406269991302    0.3355459895902177    0.4869150998876527 Hf
   1.8915406269991304    0.5855459895902178    0.4869150998876526 Hf
   1.2665406269991302    0.4605459895902178    0.4869150998876526 Hf
   1.7665406269991304    0.9605459895902179    0.4869150998876526 Hf
   2.1415406269991308    0.8355459895902179    0.4869150998876526 Hf
   1.5165406269991304    0.7105459895902178    0.4869150998876526 Hf
   2.0165406269991308    1.2105459895902178    0.4869150998876526 Hf
   1.3915406269991304    1.0855459895902178    0.4869150998876527 Hf
   1.3327179326000791    1.2894375923016097    0.4924530131522470 Hf
   1.5827179326000793    0.5394375923016097    0.4924530131522470 Hf
   1.9577179326000793    0.4144375923016099    0.4924530131522469 Hf
   1.4577179326000793    0.9144375923016098    0.4924530131522470 Hf
   1.8327179326000793    0.7894375923016099    0.4924530131522469 Hf
   2.2077179326000791    0.6644375923016098    0.4924530131522469 Hf
   1.7077179326000795    1.1644375923016097    0.4924530131522470 Hf
   2.0827179326000795    1.0394375923016099    0.4924530131522470 Hf
   1.7634085037839189    0.4781066289036041    0.4779432919811466 Hf
   2.0134085037839196    0.7281066289036042    0.4779432919811467 Hf
   1.3884085037839189    0.6031066289036040    0.4779432919811467 Hf
   1.8884085037839189    1.1031066289036040    0.4779432919811467 Hf
   1.2634085037839189    0.9781066289036041    0.4779432919811467 Hf
   1.6384085037839193    0.8531066289036041    0.4779432919811465 Hf
   2.1384085037839187    0.3531066289036040    0.4779432919811467 Hf
   1.5134085037839189    1.2281066289036042    0.4779432919811467 Hf
   0.1250000000000000    0.0500000000000000    0.2447565536071256 Ti
   0.1250000000000000    0.2500000000000001    0.2447565536071256 Ti
   0.1250000000000000    0.4500000000000001    0.2447565536071256 Ti
   0.1250000000000000    0.6500000000000000    0.2447565536071256 Ti
   0.1250000000000000    0.8500000000000001    0.2447565536071256 Ti
   0.3749999999999999    0.1500000000000000    0.2447565536071256 Ti
   0.3749999999999999    0.3500000000000001    0.2447565536071256 Ti
   0.3749999999999999    0.5499999999999999    0.2447565536071256 Ti
   0.3749999999999999    0.7500000000000000    0.2447565536071256 Ti
   0.3749999999999999    0.9500000000000000    0.2447565536071256 Ti
   0.6250000000000000    0.0500000000000000    0.2447565536071256 Ti
   0.6250000000000000    0.2500000000000001    0.2447565536071256 Ti
   0.6250000000000000    0.4500000000000001    0.2447565536071256 Ti
   0.6250000000000000    0.6500000000000000    0.2447565536071256 Ti
   0.6250000000000000    0.8499999999999998    0.2447565536071256 Ti
   0.8750000000000000    0.1500000000000000    0.2447565536071256 Ti
   0.8750000000000000    0.3500000000000001    0.2447565536071256 Ti
   0.8750000000000000    0.5500000000000000    0.2447565536071256 Ti
   0.8750000000000000    0.7499999999999999    0.2447565536071256 Ti
   0.8750000000000000    0.9500000000000001    0.2447565536071256 Ti
   0.1249999999999999    0.0500000000000001    0.3279252516065373 Ti
   0.1249999999999999    0.2500000000000001    0.3279252516065373 Ti
   0.1249999999999999    0.4500000000000001    0.3279252516065373 Ti
   0.1249999999999999    0.6500000000000000    0.3279252516065373 Ti
   0.1249999999999999    0.8500000000000001    0.3279252516065373 Ti
   0.3749999999999999    0.1500000000000001    0.3279252516065373 Ti
   0.3749999999999999    0.3500000000000001    0.3279252516065373 Ti
   0.3749999999999999    0.5499999999999999    0.3279252516065373 Ti
   0.3749999999999999    0.7500000000000000    0.3279252516065373 Ti
   0.3749999999999999    0.9500000000000000    0.3279252516065373 Ti
   0.6250000000000000    0.0500000000000001    0.3279252516065373 Ti
   0.6250000000000000    0.2500000000000001    0.3279252516065373 Ti
   0.6250000000000000    0.4500000000000001    0.3279252516065373 Ti
   0.6250000000000000    0.6500000000000000    0.3279252516065373 Ti
   0.6250000000000000    0.8499999999999998    0.3279252516065373 Ti
   0.8750000000000000    0.1500000000000000    0.3279252516065373 Ti
   0.8750000000000000    0.3500000000000001    0.3279252516065373 Ti
   0.8750000000000000    0.5500000000000000    0.3279252516065373 Ti
   0.8750000000000000    0.7499999999999999    0.3279252516065373 Ti
   0.8750000000000000    0.9500000000000001    0.3279252516065373 Ti
   0.1249999999999999    0.0500000000000001    0.4110939496059490 Ti
   0.1249999999999999    0.2500000000000001    0.4110939496059490 Ti
   0.1249999999999999    0.4500000000000001    0.4110939496059490 Ti
   0.1249999999999999    0.6500000000000001    0.4110939496059490 Ti
   0.1249999999999999    0.8500000000000002    0.4110939496059490 Ti
   0.3749999999999999    0.1500000000000001    0.4110939496059490 Ti
   0.3749999999999999    0.3500000000000002    0.4110939496059490 Ti
   0.3749999999999999    0.5500000000000000    0.4110939496059490 Ti
   0.3749999999999999    0.7500000000000000    0.4110939496059490 Ti
   0.3749999999999999    0.9500000000000002    0.4110939496059490 Ti
   0.6250000000000000    0.0500000000000000    0.4110939496059490 Ti
   0.6250000000000000    0.2500000000000001    0.4110939496059490 Ti
   0.6250000000000000    0.4500000000000001    0.4110939496059490 Ti
   0.6250000000000000    0.6500000000000002    0.4110939496059490 Ti
   0.6250000000000000    0.8500000000000000    0.4110939496059490 Ti
   0.8750000000000000    0.1500000000000000    0.4110939496059490 Ti
   0.8750000000000000    0.3500000000000001    0.4110939496059490 Ti
   0.8750000000000000    0.5500000000000002    0.4110939496059490 Ti
   0.8750000000000000    0.7500000000000001    0.4110939496059490 Ti
   0.8750000000000000    0.9500000000000001    0.4110939496059490 Ti
   0.1250000000000000    0.9500000000000000    0.2447565536071256 O
   0.1250000000000000    0.1500000000000000    0.2447565536071256 O
   0.1250000000000000    0.3500000000000001    0.2447565536071256 O
   0.1250000000000000    0.5500000000000000    0.2447565536071256 O
   0.1250000000000000    0.7500000000000000    0.2447565536071256 O
   0.3749999999999999    0.0500000000000000    0.2447565536071256 O
   0.3749999999999999    0.2500000000000001    0.2447565536071256 O
   0.3749999999999999    0.4499999999999998    0.2447565536071256 O
   0.3749999999999999    0.6500000000000000    0.2447565536071256 O
   0.3749999999999999    0.8500000000000000    0.2447565536071256 O
   0.6250000000000000    0.9500000000000000    0.2447565536071256 O
   0.6250000000000000    0.1500000000000001    0.2447565536071256 O
   0.6250000000000000    0.3500000000000000    0.2447565536071256 O
   0.6250000000000000    0.5500000000000000    0.2447565536071256 O
   0.6250000000000000    0.7499999999999998    0.2447565536071256 O
   0.8750000000000000    0.0500000000000000    0.2447565536071256 O
   0.8750000000000000    0.2500000000000000    0.2447565536071256 O
   0.8750000000000000    0.4500000000000000    0.2447565536071256 O
   0.8750000000000000    0.6499999999999999    0.2447565536071256 O
   0.8750000000000000    0.8500000000000001    0.2447565536071256 O
  -0.0000000000000000    0.1000000000000000    0.2447565536071256 O
  -0.0000000000000000    0.3000000000000000    0.2447565536071256 O
  -0.0000000000000000    0.5000000000000001    0.2447565536071256 O
  -0.0000000000000000    0.7000000000000001    0.2447565536071256 O
  -0.0000000000000000    0.9000000000000000    0.2447565536071256 O
   0.2500000000000000    0.2000000000000000    0.2447565536071256 O
   0.2500000000000000    0.4000000000000001    0.2447565536071256 O
   0.2500000000000000    0.6000000000000000    0.2447565536071256 O
   0.2500000000000000    0.8000000000000000    0.2447565536071256 O
   0.2500000000000000    1.0000000000000000    0.2447565536071256 O
   0.5000000000000000    0.1000000000000001    0.2447565536071256 O
   0.5000000000000000    0.3000000000000001    0.2447565536071256 O
   0.5000000000000000    0.5000000000000001    0.2447565536071256 O
   0.5000000000000000    0.7000000000000001    0.2447565536071256 O
   0.5000000000000000    0.8999999999999999    0.2447565536071256 O
   0.7500000000000000    0.2000000000000000    0.2447565536071256 O
   0.7500000000000000    0.4000000000000001    0.2447565536071256 O
   0.7500000000000000    0.6000000000000001    0.2447565536071256 O
   0.7500000000000000    0.7999999999999999    0.2447565536071256 O
   0.7500000000000000    0.0000000000000001    0.2447565536071256 O
   0.1250000000000000    0.0500000000000000    0.2031722046074198 O
   0.1250000000000000    0.2500000000000001    0.2031722046074198 O
   0.1250000000000000    0.4500000000000001    0.2031722046074198 O
   0.1250000000000000    0.6500000000000000    0.2031722046074198 O
   0.1250000000000000    0.8500000000000001    0.2031722046074198 O
   0.3750000000000000    0.1500000000000001    0.2031722046074197 O
   0.3750000000000000    0.3500000000000001    0.2031722046074197 O
   0.3750000000000000    0.5499999999999999    0.2031722046074197 O
   0.3750000000000000    0.7500000000000000    0.2031722046074197 O
   0.3750000000000000    0.9500000000000000    0.2031722046074197 O
   0.6250000000000000    0.0500000000000000    0.2031722046074197 O
   0.6250000000000000    0.2500000000000001    0.2031722046074197 O
   0.6250000000000000    0.4500000000000001    0.2031722046074197 O
   0.6250000000000000    0.6500000000000000    0.2031722046074197 O
   0.6250000000000000    0.8499999999999998    0.2031722046074197 O
   0.8750000000000001    0.1500000000000000    0.2031722046074198 O
   0.8750000000000001    0.3500000000000001    0.2031722046074198 O
   0.8750000000000001    0.5500000000000000    0.2031722046074198 O
   0.8750000000000001    0.7499999999999999    0.2031722046074198 O
   0.8750000000000001    0.9500000000000001    0.2031722046074198 O
   0.1249999999999999    0.9500000000000000    0.3279252516065373 O
   0.1249999999999999    0.1500000000000001    0.3279252516065373 O
   0.1249999999999999    0.3500000000000001    0.3279252516065373 O
   0.1249999999999999    0.5500000000000002    0.3279252516065373 O
   0.1249999999999999    0.7500000000000001    0.3279252516065373 O
   0.3749999999999999    0.0500000000000001    0.3279252516065373 O
   0.3749999999999999    0.2500000000000001    0.3279252516065373 O
   0.3749999999999999    0.4500000000000001    0.3279252516065373 O
   0.3749999999999999    0.6500000000000001    0.3279252516065373 O
   0.3749999999999999    0.8500000000000000    0.3279252516065373 O
   0.6250000000000000    0.9500000000000000    0.3279252516065373 O
   0.6250000000000000    0.1500000000000001    0.3279252516065373 O
   0.6250000000000000    0.3500000000000000    0.3279252516065373 O
   0.6250000000000000    0.5500000000000000    0.3279252516065373 O
   0.6250000000000000    0.7499999999999998    0.3279252516065373 O
   0.8750000000000000    0.0500000000000000    0.3279252516065373 O
   0.8750000000000000    0.2500000000000001    0.3279252516065373 O
   0.8750000000000000    0.4500000000000001    0.3279252516065373 O
   0.8750000000000000    0.6499999999999999    0.3279252516065373 O
   0.8750000000000000    0.8500000000000001    0.3279252516065373 O
  -0.0000000000000001    0.1000000000000001    0.3279252516065373 O
  -0.0000000000000001    0.3000000000000001    0.3279252516065373 O
  -0.0000000000000001    0.5000000000000000    0.3279252516065373 O
  -0.0000000000000001    0.7000000000000001    0.3279252516065373 O
  -0.0000000000000001    0.9000000000000000    0.3279252516065373 O
   0.2500000000000000    0.2000000000000001    0.3279252516065373 O
   0.2500000000000000    0.4000000000000000    0.3279252516065373 O
   0.2500000000000000    0.6000000000000000    0.3279252516065373 O
   0.2500000000000000    0.7999999999999998    0.3279252516065373 O
   0.2500000000000000    1.0000000000000000    0.3279252516065373 O
   0.5000000000000000    0.1000000000000001    0.3279252516065373 O
   0.5000000000000000    0.3000000000000001    0.3279252516065373 O
   0.5000000000000000    0.5000000000000000    0.3279252516065373 O
   0.5000000000000000    0.7000000000000001    0.3279252516065373 O
   0.5000000000000000    0.8999999999999999    0.3279252516065373 O
   0.7500000000000000    0.2000000000000000    0.3279252516065373 O
   0.7500000000000000    0.4000000000000001    0.3279252516065373 O
   0.7500000000000000    0.6000000000000001    0.3279252516065373 O
   0.7500000000000000    0.7999999999999999    0.3279252516065373 O
   0.7500000000000000    0.0000000000000001    0.3279252516065373 O
   0.1249999999999999    0.0500000000000001    0.2863409026068314 O
   0.1249999999999999    0.2500000000000001    0.2863409026068314 O
   0.1249999999999999    0.4500000000000001    0.2863409026068314 O
   0.1249999999999999    0.6500000000000000    0.2863409026068314 O
   0.1249999999999999    0.8500000000000001    0.2863409026068314 O
   0.3749999999999999    0.1500000000000001    0.2863409026068314 O
   0.3749999999999999    0.3500000000000001    0.2863409026068314 O
   0.3749999999999999    0.5499999999999999    0.2863409026068314 O
   0.3749999999999999    0.7500000000000000    0.2863409026068314 O
   0.3749999999999999    0.9500000000000000    0.2863409026068314 O
   0.6250000000000000    0.0500000000000001    0.2863409026068314 O
   0.6250000000000000    0.2500000000000001    0.2863409026068314 O
   0.6250000000000000    0.4500000000000001    0.2863409026068314 O
   0.6250000000000000    0.6500000000000000    0.2863409026068314 O
   0.6250000000000000    0.8499999999999998    0.2863409026068314 O
   0.8750000000000000    0.1500000000000000    0.2863409026068315 O
   0.8750000000000000    0.3500000000000001    0.2863409026068315 O
   0.8750000000000000    0.5500000000000000    0.2863409026068315 O
   0.8750000000000000    0.7499999999999999    0.2863409026068315 O
   0.8750000000000000    0.9500000000000001    0.2863409026068315 O
   0.1249999999999999    0.9500000000000001    0.4110939496059490 O
   0.1249999999999999    0.1500000000000001    0.4110939496059490 O
   0.1249999999999999    0.3500000000000001    0.4110939496059490 O
   0.1249999999999999    0.5500000000000002    0.4110939496059490 O
   0.1249999999999999    0.7500000000000002    0.4110939496059490 O
   0.3749999999999999    0.0500000000000001    0.4110939496059490 O
   0.3749999999999999    0.2500000000000001    0.4110939496059490 O
   0.3749999999999999    0.4500000000000001    0.4110939496059490 O
   0.3749999999999999    0.6500000000000002    0.4110939496059490 O
   0.3749999999999999    0.8500000000000000    0.4110939496059490 O
   0.6250000000000000    0.9500000000000000    0.4110939496059490 O
   0.6250000000000000    0.1500000000000000    0.4110939496059490 O
   0.6250000000000000    0.3500000000000001    0.4110939496059490 O
   0.6250000000000000    0.5500000000000002    0.4110939496059490 O
   0.6250000000000000    0.7499999999999998    0.4110939496059490 O
   0.8750000000000000    0.0500000000000000    0.4110939496059490 O
   0.8750000000000000    0.2500000000000002    0.4110939496059490 O
   0.8750000000000000    0.4500000000000002    0.4110939496059490 O
   0.8750000000000000    0.6499999999999999    0.4110939496059490 O
   0.8750000000000000    0.8500000000000001    0.4110939496059490 O
  -0.0000000000000001    0.1000000000000001    0.4110939496059490 O
  -0.0000000000000001    0.3000000000000001    0.4110939496059490 O
  -0.0000000000000001    0.5000000000000001    0.4110939496059490 O
  -0.0000000000000001    0.7000000000000002    0.4110939496059490 O
  -0.0000000000000001    0.9000000000000002    0.4110939496059490 O
   0.2499999999999999    0.2000000000000001    0.4110939496059490 O
   0.2499999999999999    0.4000000000000001    0.4110939496059490 O
   0.2499999999999999    0.6000000000000001    0.4110939496059490 O
   0.2499999999999999    0.8000000000000003    0.4110939496059490 O
   0.2499999999999999    0.0000000000000001    0.4110939496059490 O
   0.4999999999999999    0.1000000000000001    0.4110939496059490 O
   0.4999999999999999    0.3000000000000002    0.4110939496059490 O
   0.4999999999999999    0.5000000000000001    0.4110939496059490 O
   0.4999999999999999    0.7000000000000002    0.4110939496059490 O
   0.4999999999999999    0.9000000000000000    0.4110939496059490 O
   0.7499999999999999    0.2000000000000001    0.4110939496059490 O
   0.7499999999999999    0.4000000000000002    0.4110939496059490 O
   0.7499999999999999    0.6000000000000002    0.4110939496059490 O
   0.7499999999999999    0.8000000000000002    0.4110939496059490 O
   0.7499999999999999    0.0000000000000001    0.4110939496059490 O
   0.1249999999999999    0.0500000000000001    0.3695096006062432 O
   0.1249999999999999    0.2500000000000001    0.3695096006062432 O
   0.1249999999999999    0.4500000000000002    0.3695096006062432 O
   0.1249999999999999    0.6500000000000001    0.3695096006062432 O
   0.1249999999999999    0.8500000000000002    0.3695096006062432 O
   0.3749999999999999    0.1500000000000001    0.3695096006062432 O
   0.3749999999999999    0.3500000000000002    0.3695096006062432 O
   0.3749999999999999    0.5500000000000000    0.3695096006062432 O
   0.3749999999999999    0.7500000000000000    0.3695096006062432 O
   0.3749999999999999    0.9500000000000002    0.3695096006062432 O
   0.6250000000000000    0.0500000000000001    0.3695096006062432 O
   0.6250000000000000    0.2500000000000002    0.3695096006062432 O
   0.6250000000000000    0.4500000000000002    0.3695096006062432 O
   0.6250000000000000    0.6500000000000002    0.3695096006062432 O
   0.6250000000000000    0.8500000000000001    0.3695096006062432 O
   0.8750000000000000    0.1500000000000000    0.3695096006062432 O
   0.8750000000000000    0.3500000000000001    0.3695096006062432 O
   0.8750000000000000    0.5500000000000002    0.3695096006062432 O
   0.8750000000000000    0.7500000000000001    0.3695096006062432 O
   0.8750000000000000    0.9500000000000001    0.3695096006062432 O
   0.9068029125692073    0.1711529842195796    0.7458190261936053 O
   1.1568029125692072    0.4211529842195796    0.7458190261936053 O
   0.5318029125692074    0.2961529842195796    0.7458190261936053 O
   1.0318029125692074    0.7961529842195797    0.7458190261936053 O
   1.4068029125692074    0.6711529842195796    0.7458190261936053 O
   0.7818029125692072    0.5461529842195797    0.7458190261936053 O
   1.2818029125692074    1.0461529842195796    0.7458190261936053 O
   0.6568029125692071    0.9211529842195796    0.7458190261936053 O
   0.5419058995587918    0.1680284228488249    0.7555558886563636 O
   0.7919058995587919    0.4180284228488250    0.7555558886563638 O
   1.1669058995587918    0.2930284228488249    0.7555558886563636 O
   0.6669058995587921    0.7930284228488249    0.7555558886563636 O
   1.0419058995587922    0.6680284228488250    0.7555558886563636 O
   0.4169058995587920    0.5430284228488250    0.7555558886563636 O
   0.9169058995587920    1.0430284228488249    0.7555558886563638 O
   1.2919058995587922    0.9180284228488249    0.7555558886563636 O
   0.6185310385661976    1.0434912798909020    0.7768279294280536 O
   0.8685310385661976    0.2934912798909021    0.7768279294280533 O
   1.2435310385661975    0.1684912798909021    0.7768279294280536 O
   0.7435310385661976    0.6684912798909021    0.7768279294280536 O
   1.1185310385661977    0.5434912798909021    0.7768279294280533 O
   0.4935310385661978    0.4184912798909022    0.7768279294280533 O
   0.9935310385661978    0.9184912798909021    0.7768279294280533 O
   0.3685310385661977    0.7934912798909022    0.7768279294280533 O
   0.8301777735618017    0.2956901271775025    0.7245469854219155 O
   1.0801777735618017    0.5456901271775025    0.7245469854219155 O
   1.4551777735618017    0.4206901271775026    0.7245469854219155 O
   0.9551777735618017    0.9206901271775026    0.7245469854219155 O
   1.3301777735618017    0.7956901271775025    0.7245469854219155 O
   0.7051777735618014    0.6706901271775025    0.7245469854219155 O
   1.2051777735618017    0.1706901271775027    0.7245469854219155 O
   0.5801777735618016    1.0456901271775025    0.7245469854219155 O
   0.7834502085500749    1.0302611478047818    0.7688966310954366 O
   1.0334502085500745    0.2802611478047821    0.7688966310954366 O
   0.4084502085500746    0.1552611478047821    0.7688966310954366 O
   0.9084502085500747    0.6552611478047821    0.7688966310954366 O
   1.2834502085500745    0.5302611478047820    0.7688966310954366 O
   0.6584502085500747    0.4052611478047821    0.7688966310954366 O
   1.1584502085500747    0.9052611478047821    0.7688966310954366 O
   0.5334502085500749    0.7802611478047822    0.7688966310954366 O
   0.6652586035779244    0.3089202592636225    0.7324782837545325 O
   0.9152586035779243    0.5589202592636224    0.7324782837545325 O
   1.2902586035779244    0.4339202592636227    0.7324782837545325 O
   0.7902586035779245    0.9339202592636225    0.7324782837545325 O
   1.1652586035779247    0.8089202592636227    0.7324782837545325 O
   0.5402586035779247    0.6839202592636224    0.7324782837545325 O
   1.0402586035779247    0.1839202592636227    0.7324782837545325 O
   1.4152586035779249    1.0589202592636227    0.7324782837545323 O
   0.7490610451150299    0.2163759676955730    0.7645591294493088 O
   0.9990610451150299    0.4663759676955729    0.7645591294493088 O
   0.3740610451150300    0.3413759676955730    0.7645591294493088 O
   0.8740610451150301    0.8413759676955731    0.7645591294493088 O
   1.2490610451150301    0.7163759676955730    0.7645591294493088 O
   0.6240610451150301    0.5913759676955731    0.7645591294493088 O
   1.1240610451150304    1.0913759676955730    0.7645591294493088 O
   0.4990610451150303    0.9663759676955730    0.7645591294493088 O
   0.6996477670129690    0.1228054393728316    0.7368157854006601 O
   0.9496477670129689    0.3728054393728316    0.7368157854006603 O
   1.3246477670129688    0.2478054393728316    0.7368157854006603 O
   0.8246477670129692    0.7478054393728316    0.7368157854006603 O
   1.1996477670129688    0.6228054393728316    0.7368157854006603 O
   0.5746477670129694    0.4978054393728317    0.7368157854006601 O
   1.0746477670129690    0.9978054393728315    0.7368157854006603 O
   1.4496477670129693    0.8728054393728318    0.7368157854006603 O
   1.1127301156012070    0.2246983359866808    0.6794466999790334 O
   1.3627301156012073    0.4746983359866808    0.6794466999790334 O
   0.7377301156012070    0.3496983359866808    0.6794466999790334 O
   1.2377301156012073    0.8496983359866808    0.6794466999790334 O
   1.6127301156012070    0.7246983359866808    0.6794466999790334 O
   0.9877301156012068    0.5996983359866809    0.6794466999790334 O
   1.4877301156012070    1.0996983359866808    0.6794466999790334 O
   0.8627301156012072    0.9746983359866809    0.6794466999790334 O
   0.7478331025907917    0.2215737746159261    0.6891835624417917 O
   0.9978331025907917    0.4715737746159261    0.6891835624417917 O
   1.3728331025907916    0.3465737746159261    0.6891835624417917 O
   0.8728331025907921    0.8465737746159262    0.6891835624417917 O
   1.2478331025907918    0.7215737746159262    0.6891835624417917 O
   0.6228331025907918    0.5965737746159262    0.6891835624417917 O
   1.1228331025907921    1.0965737746159261    0.6891835624417917 O
   1.4978331025907918    0.9715737746159262    0.6891835624417917 O
   0.8244582415981976    1.0970366316580031    0.7104556032134817 O
   1.0744582415981974    0.3470366316580032    0.7104556032134814 O
   1.4494582415981971    0.2220366316580032    0.7104556032134814 O
   0.9494582415981975    0.7220366316580032    0.7104556032134817 O
   1.3244582415981976    0.5970366316580034    0.7104556032134814 O
   0.6994582415981976    0.4720366316580033    0.7104556032134814 O
   1.1994582415981976    0.9720366316580034    0.7104556032134814 O
   0.5744582415981976    0.8470366316580032    0.7104556032134817 O
   1.0361049765938015    0.3492354789446037    0.6581746592073436 O
   1.2861049765938015    0.5992354789446037    0.6581746592073436 O
   1.6611049765938013    0.4742354789446038    0.6581746592073436 O
   1.1611049765938017    0.9742354789446037    0.6581746592073436 O
   1.5361049765938011    0.8492354789446036    0.6581746592073436 O
   0.9111049765938015    0.7242354789446037    0.6581746592073436 O
   1.4111049765938015    0.2242354789446038    0.6581746592073436 O
   0.7861049765938015    1.0992354789446037    0.6581746592073436 O
   0.9893774115820746    1.0838064995718832    0.7025243048808647 O
   1.2393774115820742    0.3338064995718832    0.7025243048808647 O
   0.6143774115820746    0.2088064995718832    0.7025243048808645 O
   1.1143774115820746    0.7088064995718832    0.7025243048808646 O
   1.4893774115820744    0.5838064995718831    0.7025243048808646 O
   0.8643774115820747    0.4588064995718832    0.7025243048808645 O
   1.3643774115820746    0.9588064995718832    0.7025243048808646 O
   0.7393774115820748    0.8338064995718834    0.7025243048808646 O
   0.8711858066099242    0.3624656110307237    0.6661059575399606 O
   1.1211858066099245    0.6124656110307238    0.6661059575399604 O
   1.4961858066099245    0.4874656110307237    0.6661059575399605 O
   0.9961858066099246    0.9874656110307238    0.6661059575399605 O
   1.3711858066099247    0.8624656110307237    0.6661059575399604 O
   0.7461858066099242    0.7374656110307236    0.6661059575399606 O
   1.2461858066099245    0.2374656110307238    0.6661059575399604 O
   1.6211858066099245    1.1124656110307236    0.6661059575399606 O
   0.9549882481470298    0.2699213194626741    0.6981868032347369 O
   1.2049882481470300    0.5199213194626742    0.6981868032347369 O
   0.5799882481470300    0.3949213194626742    0.6981868032347368 O
   1.0799882481470302    0.8949213194626743    0.6981868032347369 O
   1.4549882481470300    0.7699213194626744    0.6981868032347369 O
   0.8299882481470300    0.6449213194626742    0.6981868032347368 O
   1.3299882481470304    1.1449213194626742    0.6981868032347367 O
   0.7049882481470299    1.0199213194626742    0.6981868032347369 O
   0.9055749700449689    0.1763507911399328    0.6704434591860882 O
   1.1555749700449687    0.4263507911399327    0.6704434591860882 O
   1.5305749700449687    0.3013507911399327    0.6704434591860882 O
   1.0305749700449687    0.8013507911399328    0.6704434591860884 O
   1.4055749700449691    0.6763507911399328    0.6704434591860882 O
   0.7805749700449689    0.5513507911399329    0.6704434591860882 O
   1.2805749700449691    1.0513507911399329    0.6704434591860882 O
   1.6555749700449691    0.9263507911399330    0.6704434591860882 O
   1.3186573186332071    0.2782436877537820    0.6130743737644614 O
   1.5686573186332067    0.5282436877537819    0.6130743737644615 O
   0.9436573186332071    0.4032436877537820    0.6130743737644614 O
   1.4436573186332069    0.9032436877537819    0.6130743737644615 O
   1.8186573186332071    0.7782436877537819    0.6130743737644614 O
   1.1936573186332073    0.6532436877537821    0.6130743737644614 O
   1.6936573186332076    1.1532436877537819    0.6130743737644613 O
   1.0686573186332071    1.0282436877537819    0.6130743737644615 O
   0.9537603056227916    0.2751191263830273    0.6228112362272198 O
   1.2037603056227915    0.5251191263830273    0.6228112362272198 O
   1.5787603056227915    0.4001191263830273    0.6228112362272198 O
   1.0787603056227919    0.9001191263830273    0.6228112362272198 O
   1.4537603056227915    0.7751191263830273    0.6228112362272198 O
   0.8287603056227919    0.6501191263830273    0.6228112362272198 O
   1.3287603056227915    1.1501191263830273    0.6228112362272198 O
   1.7037603056227917    1.0251191263830273    0.6228112362272198 O
   1.0303854446301974    1.1505819834251045    0.6440832769989095 O
   1.2803854446301974    0.4005819834251044    0.6440832769989095 O
   1.6553854446301970    0.2755819834251044    0.6440832769989095 O
   1.1553854446301974    0.7755819834251044    0.6440832769989095 O
   1.5303854446301974    0.6505819834251045    0.6440832769989095 O
   0.9053854446301975    0.5255819834251044    0.6440832769989095 O
   1.4053854446301972    1.0255819834251043    0.6440832769989097 O
   0.7803854446301975    0.9005819834251044    0.6440832769989095 O
   1.2420321796258011    0.4027808307117048    0.5918023329927717 O
   1.4920321796258011    0.6527808307117049    0.5918023329927717 O
   1.8670321796258014    0.5277808307117050    0.5918023329927716 O
   1.3670321796258009    1.0277808307117049    0.5918023329927717 O
   1.7420321796258009    0.9027808307117048    0.5918023329927717 O
   1.1170321796258014    0.7777808307117049    0.5918023329927717 O
   1.6170321796258011    0.2777808307117050    0.5918023329927717 O
   0.9920321796258014    1.1527808307117049    0.5918023329927717 O
   1.1953046146140747    1.1373518513389842    0.6361519786662926 O
   1.4453046146140744    0.3873518513389844    0.6361519786662926 O
   0.8203046146140744    0.2623518513389844    0.6361519786662926 O
   1.3203046146140747    0.7623518513389844    0.6361519786662926 O
   1.6953046146140744    0.6373518513389844    0.6361519786662926 O
   1.0703046146140742    0.5123518513389843    0.6361519786662926 O
   1.5703046146140747    1.0123518513389846    0.6361519786662927 O
   0.9453046146140743    0.8873518513389845    0.6361519786662927 O
   1.0771130096419241    0.4160109627978248    0.5997336313253886 O
   1.3271130096419246    0.6660109627978249    0.5997336313253885 O
   1.7021130096419241    0.5410109627978249    0.5997336313253885 O
   1.2021130096419246    1.0410109627978248    0.5997336313253885 O
   1.5771130096419244    0.9160109627978248    0.5997336313253886 O
   0.9521130096419241    0.7910109627978250    0.5997336313253886 O
   1.4521130096419241    0.2910109627978250    0.5997336313253886 O
   1.8271130096419246    1.1660109627978250    0.5997336313253885 O
   1.1609154511790298    0.3234666712297752    0.6318144770201649 O
   1.4109154511790298    0.5734666712297752    0.6318144770201649 O
   0.7859154511790298    0.4484666712297753    0.6318144770201649 O
   1.2859154511790301    0.9484666712297753    0.6318144770201650 O
   1.6609154511790298    0.8234666712297753    0.6318144770201650 O
   1.0359154511790301    0.6984666712297753    0.6318144770201650 O
   1.5359154511790298    1.1984666712297753    0.6318144770201648 O
   0.9109154511790301    1.0734666712297753    0.6318144770201649 O
   1.1115021730769687    0.2298961429070339    0.6040711329715163 O
   1.3615021730769690    0.4798961429070339    0.6040711329715163 O
   1.7365021730769690    0.3548961429070340    0.6040711329715163 O
   1.2365021730769692    0.8548961429070340    0.6040711329715163 O
   1.6115021730769690    0.7298961429070341    0.6040711329715163 O
   0.9865021730769691    0.6048961429070340    0.6040711329715164 O
   1.4865021730769692    1.1048961429070341    0.6040711329715164 O
   1.8615021730769690    0.9798961429070340    0.6040711329715163 O
   1.5245845216652065    0.3317890395208831    0.5467020475498896 O
   1.7745845216652065    0.5817890395208830    0.5467020475498896 O
   1.1495845216652065    0.4567890395208831    0.5467020475498896 O
   1.6495845216652065    0.9567890395208831    0.5467020475498896 O
   2.0245845216652065    0.8317890395208832    0.5467020475498896 O
   1.3995845216652072    0.7067890395208832    0.5467020475498895 O
   1.8995845216652063    1.2067890395208831    0.5467020475498896 O
   1.2745845216652067    1.0817890395208831    0.5467020475498896 O
   1.1596875086547913    0.3286644781501284    0.5564389100126479 O
   1.4096875086547913    0.5786644781501284    0.5564389100126479 O
   1.7846875086547915    0.4536644781501284    0.5564389100126479 O
   1.2846875086547915    0.9536644781501283    0.5564389100126479 O
   1.6596875086547920    0.8286644781501284    0.5564389100126479 O
   1.0346875086547915    0.7036644781501286    0.5564389100126479 O
   1.5346875086547915    1.2036644781501284    0.5564389100126479 O
   1.9096875086547920    1.0786644781501284    0.5564389100126479 O
   1.2363126476621973    1.2041273351922057    0.5777109507843377 O
   1.4863126476621971    0.4541273351922055    0.5777109507843378 O
   1.8613126476621971    0.3291273351922056    0.5777109507843377 O
   1.3613126476621973    0.8291273351922055    0.5777109507843377 O
   1.7363126476621971    0.7041273351922057    0.5777109507843377 O
   1.1113126476621973    0.5791273351922056    0.5777109507843377 O
   1.6113126476621973    1.0791273351922057    0.5777109507843377 O
   0.9863126476621974    0.9541273351922056    0.5777109507843377 O
   1.4479593826578010    0.4563261824788060    0.5254300067781998 O
   1.6979593826578010    0.7063261824788060    0.5254300067781998 O
   2.0729593826578006    0.5813261824788061    0.5254300067781998 O
   1.5729593826578010    1.0813261824788061    0.5254300067781998 O
   1.9479593826578010    0.9563261824788060    0.5254300067781998 O
   1.3229593826578010    0.8313261824788061    0.5254300067781998 O
   1.8229593826578010    0.3313261824788061    0.5254300067781998 O
   1.1979593826578012    1.2063261824788061    0.5254300067781998 O
   1.4012318176460745    1.1908972031060856    0.5697796524517208 O
   1.6512318176460743    0.4408972031060855    0.5697796524517207 O
   1.0262318176460739    0.3158972031060855    0.5697796524517207 O
   1.5262318176460743    0.8158972031060856    0.5697796524517208 O
   1.9012318176460743    0.6908972031060855    0.5697796524517208 O
   1.2762318176460741    0.5658972031060855    0.5697796524517207 O
   1.7762318176460743    1.0658972031060856    0.5697796524517208 O
   1.1512318176460743    0.9408972031060856    0.5697796524517208 O
   1.2830402126739240    0.4695563145649260    0.5333613051108167 O
   1.5330402126739242    0.7195563145649260    0.5333613051108166 O
   1.9080402126739244    0.5945563145649262    0.5333613051108166 O
   1.4080402126739242    1.0945563145649260    0.5333613051108167 O
   1.7830402126739244    0.9695563145649262    0.5333613051108166 O
   1.1580402126739242    0.8445563145649261    0.5333613051108167 O
   1.6580402126739240    0.3445563145649261    0.5333613051108166 O
   2.0330402126739240    1.2195563145649260    0.5333613051108167 O
   1.3668426542110297    0.3770120229968764    0.5654421508055929 O
   1.6168426542110297    0.6270120229968764    0.5654421508055929 O
   0.9918426542110302    0.5020120229968765    0.5654421508055929 O
   1.4918426542110299    1.0020120229968765    0.5654421508055931 O
   1.8668426542110301    0.8770120229968766    0.5654421508055931 O
   1.2418426542110299    0.7520120229968765    0.5654421508055929 O
   1.7418426542110301    1.2520120229968763    0.5654421508055929 O
   1.1168426542110301    1.1270120229968765    0.5654421508055929 O
   1.3174293761089688    0.2834414946741351    0.5376988067569444 O
   1.5674293761089688    0.5334414946741352    0.5376988067569444 O
   1.9424293761089688    0.4084414946741351    0.5376988067569443 O
   1.4424293761089688    0.9084414946741350    0.5376988067569445 O
   1.8174293761089693    0.7834414946741353    0.5376988067569443 O
   1.1924293761089693    0.6584414946741353    0.5376988067569443 O
   1.6924293761089693    1.1584414946741350    0.5376988067569443 O
   2.0674293761089690    1.0334414946741353    0.5376988067569444 O
   1.7305117246972064    0.3853343912879842    0.4803297213353176 O
   1.9805117246972062    0.6353343912879842    0.4803297213353176 O
   1.3555117246972066    0.5103343912879843    0.4803297213353176 O
   1.8555117246972064    1.0103343912879843    0.4803297213353176 O
   2.2305117246972062    0.8853343912879842    0.4803297213353176 O
   1.6055117246972068    0.7603343912879844    0.4803297213353176 O
   2.1055117246972066    1.2603343912879843    0.4803297213353176 O
   1.4805117246972070    1.1353343912879843    0.4803297213353176 O
   1.3656147116867914    0.3822098299172296    0.4900665837980759 O
   1.6156147116867914    0.6322098299172296    0.4900665837980759 O
   1.9906147116867920    0.5072098299172297    0.4900665837980758 O
   1.4906147116867914    1.0072098299172296    0.4900665837980759 O
   1.8656147116867920    0.8822098299172296    0.4900665837980759 O
   1.2406147116867914    0.7572098299172296    0.4900665837980759 O
   1.7406147116867918    1.2572098299172298    0.4900665837980758 O
   2.1156147116867912    1.1322098299172296    0.4900665837980759 O
   1.4422398506941971    1.2576726869593067    0.5113386245697658 O
   1.6922398506941967    0.5076726869593067    0.5113386245697659 O
   2.0672398506941967    0.3826726869593067    0.5113386245697658 O
   1.5672398506941969    0.8826726869593067    0.5113386245697659 O
   1.9422398506941967    0.7576726869593067    0.5113386245697660 O
   1.3172398506941971    0.6326726869593068    0.5113386245697658 O
   1.8172398506941969    1.1326726869593067    0.5113386245697659 O
   1.1922398506941971    1.0076726869593069    0.5113386245697658 O
   1.6538865856898008    0.5098715342459071    0.4590576805636279 O
   1.9038865856898006    0.7598715342459071    0.4590576805636279 O
   2.2788865856898011    0.6348715342459073    0.4590576805636278 O
   1.7788865856898008    1.1348715342459070    0.4590576805636279 O
   2.1538865856898006    1.0098715342459073    0.4590576805636278 O
   1.5288865856898013    0.8848715342459073    0.4590576805636277 O
   2.0288865856898011    0.3848715342459073    0.4590576805636279 O
   1.4038865856898013    1.2598715342459073    0.4590576805636278 O
   1.6071590206780741    1.2444425548731866    0.5034073262371489 O
   1.8571590206780737    0.4944425548731867    0.5034073262371490 O
   1.2321590206780739    0.3694425548731867    0.5034073262371488 O
   1.7321590206780737    0.8694425548731867    0.5034073262371490 O
   2.1071590206780741    0.7444425548731867    0.5034073262371489 O
   1.4821590206780737    0.6194425548731867    0.5034073262371489 O
   1.9821590206780741    1.1194425548731866    0.5034073262371490 O
   1.3571590206780744    0.9944425548731868    0.5034073262371489 O
   1.4889674157059238    0.5231016663320270    0.4669889788962449 O
   1.7389674157059243    0.7731016663320274    0.4669889788962447 O
   2.1139674157059236    0.6481016663320273    0.4669889788962449 O
   1.6139674157059245    1.1481016663320274    0.4669889788962448 O
   1.9889674157059241    1.0231016663320271    0.4669889788962449 O
   1.3639674157059245    0.8981016663320271    0.4669889788962447 O
   1.8639674157059238    0.3981016663320273    0.4669889788962449 O
   2.2389674157059236    1.2731016663320274    0.4669889788962449 O
   1.5727698572430295    0.4305573747639777    0.4990698245910210 O
   1.8227698572430300    0.6805573747639777    0.4990698245910210 O
   1.1977698572430298    0.5555573747639777    0.4990698245910209 O
   1.6977698572430300    1.0555573747639777    0.4990698245910212 O
   2.0727698572430295    0.9305573747639776    0.4990698245910212 O
   1.4477698572430295    0.8055573747639776    0.4990698245910211 O
   1.9477698572430295    1.3055573747639777    0.4990698245910212 O
   1.3227698572430302    1.1805573747639777    0.4990698245910211 O
   1.5233565791409684    0.3369868464412363    0.4713264805423725 O
   1.7733565791409684    0.5869868464412362    0.4713264805423725 O
   2.1483565791409682    0.4619868464412363    0.4713264805423725 O
   1.6483565791409684    0.9619868464412362    0.4713264805423726 O
   2.0233565791409691    0.8369868464412362    0.4713264805423725 O
   1.3983565791409687    0.7119868464412363    0.4713264805423726 O
   1.8983565791409689    1.2119868464412362    0.4713264805423726 O
   2.2733565791409687    1.0869868464412362    0.4713264805423725 O
