 DBCSR| CPU Multiplication driver                                           XSMM (U)
 DBCSR| Multrec recursion limit                                              512 (U)
 DBCSR| Multiplication stack size                                           1000 (D)
 DBCSR| Maximum elements for images                                    UNLIMITED (U)
 DBCSR| Multiplicative factor virtual images                                   1 (U)
 DBCSR| Use multiplication densification                                       T (D)
 DBCSR| Multiplication size stacks                                             3 (U)
 DBCSR| Use memory pool for CPU allocation                                     F (U)
 DBCSR| Number of 3D layers                                               SINGLE (U)
 DBCSR| Use MPI memory allocation                                              F (U)
 DBCSR| Use RMA algorithm                                                      F (U)
 DBCSR| Use Communication thread                                               T (U)
 DBCSR| Communication thread load                                             60 (D)
 DBCSR| MPI: My process id                                                     0
 DBCSR| MPI: Number of processes                                              32
 DBCSR| OMP: Current number of threads                                         8
 DBCSR| OMP: Max number of threads                                             8
 DBCSR| Split modifier for TAS multiplication algorithm                  1.0E+00 (U)


  **** **** ******  **  PROGRAM STARTED AT               2026-08-31 15:51:33.606
 ***** ** ***  *** **   PROGRAM STARTED ON                             nid004573
 **    ****   ******    PROGRAM STARTED BY                                agne_r
 ***** **    ** ** **   PROGRAM PROCESS ID                                102164
  **** **  *******  **  PROGRAM STARTED IN /mnt/lustre/a2fs-work3/work/e89/e89/a
                                           gne_r/Crystalline_HfO2_Interfaces/Cla
                                           ude/HfO2_STO_interfaces/V4_lattice_ma
                                           tches/updated/V4_lattice_matches/STO_
                                           HfO2_m111_pbesol_matches/configs/m01_
                                           A0091_eps6p5

 CP2K| version string:                                       CP2K version 2024.3
 CP2K| source code revision number:                                  git:6712648
 CP2K| cp2kflags: omp libint fftw3 libxc libgrpp elpa parallel scalapack cosma x
 CP2K|            smm plumed2 spglib mkl sirius libvori libbqb libvdwxc hdf5
 CP2K| is freely available from                            https://www.cp2k.org/
 CP2K| Program compiled at                       Thu 12 Sep 2024 10:20:47 AM BST
 CP2K| Program compiled on                                                  ln04
 CP2K| Program compiled for                                                local
 CP2K| Data directory path    /mnt/lustre/a2fs-work1/work/y07/shared/apps/core/c
 CP2K| Input file name                                                  cp2k.inp

 GLOBAL| Force Environment number                                              1
 GLOBAL| Basis set file name                                        BASIS_MOLOPT
 GLOBAL| Potential file name                                      GTH_POTENTIALS
 GLOBAL| MM Potential file name                                     MM_POTENTIAL
 GLOBAL| Coordinate file name                                      interface.cif
 GLOBAL| Method name                                                        CP2K
 GLOBAL| Project name                                           m01_A0091_eps6p5
 GLOBAL| Run type                                                   ENERGY_FORCE
 GLOBAL| FFT library                                                       FFTW3
 GLOBAL| Diagonalization library                                            ELPA
 GLOBAL| DGEMM library                                                      BLAS
 GLOBAL| Minimum number of eigenvectors for ELPA usage                        16
 GLOBAL| Orthonormality check for eigenvectors                          DISABLED
 GLOBAL| Matrix multiplication library                                     COSMA
 GLOBAL| All-to-all communication in single precision                          F
 GLOBAL| FFTs using library dependent lengths                                  T
 GLOBAL| Grid backend                                                       AUTO
 GLOBAL| Global print level                                                  LOW
 GLOBAL| MPI I/O enabled                                                       T
 GLOBAL| Total number of message passing processes                            32
 GLOBAL| Number of threads for this process                                    8
 GLOBAL| This output is from process                                           0
 GLOBAL| Stack size for threads created by OpenMP (OMP_STACKSIZE)        default
 GLOBAL| CPU model name                          AMD EPYC 7742 64-Core Processor
 GLOBAL| CPUID                                                              1002

 MEMORY| system memory details [Kb]
 MEMORY|                        rank 0           min           max       average
 MEMORY| MemTotal            263266880     263266864     263266880     263266872
 MEMORY| MemFree             248659076     248658824     248753156     248705997
 MEMORY| Buffers                208528        112700        208528        160614
 MEMORY| Cached                1217120       1217120       1244992       1231056
 MEMORY| Slab                  3424872       3390364       3424872       3407618
 MEMORY| SReclaimable          1419548       1419548       1422488       1421018
 MEMORY| MemLikelyFree       251504272     251504020     251533336     251518685


 GENERATE|  Preliminary Number of Bonds generated:                             0
 GENERATE|  Achieved consistency in connectivity generation.

 *******************************************************************************
 *******************************************************************************
 **                                                                           **
 **     #####                         ##              ##                      **
 **    ##   ##            ##          ##              ##                      **
 **   ##     ##                       ##            ######                    **
 **   ##     ##  ##   ##  ##   #####  ##  ##   ####   ##    #####    #####    **
 **   ##     ##  ##   ##  ##  ##      ## ##   ##      ##   ##   ##  ##   ##   **
 **   ##  ## ##  ##   ##  ##  ##      ####     ###    ##   ######   ######    **
 **    ##  ###   ##   ##  ##  ##      ## ##      ##   ##   ##       ##        **
 **     #######   #####   ##   #####  ##  ##  ####    ##    #####   ##        **
 **           ##                                                    ##        **
 **                                                                           **
 **                                                ... make the atoms dance   **
 **                                                                           **
 **            Copyright (C) by CP2K developers group (2000-2024)             **
 **                      J. Chem. Phys. 152, 194103 (2020)                    **
 **                                                                           **
 *******************************************************************************


 TOTAL NUMBERS AND MAXIMUM NUMBERS

  Total number of            - Atomic kinds:                                   4
                             - Atoms:                                        210
                             - Shell sets:                                   210
                             - Shells:                                      1242
                             - Primitive Cartesian functions:               1126
                             - Cartesian basis functions:                   3944
                             - Spherical basis functions:                   3502

  Maximum angular momentum of- Orbital basis functions:                        3
                             - Local part of the GTH pseudopotential:          2
                             - Non-local part of the GTH pseudopotential:      4


 SCF PARAMETERS         Density guess:                                    ATOMIC
                        --------------------------------------------------------
                        max_scf:                                              60
                        max_scf_history:                                       0
                        max_diis:                                              4
                        --------------------------------------------------------
                        eps_scf:                                        1.00E-06
                        eps_scf_history:                                0.00E+00
                        eps_diis:                                       1.00E-01
                        eps_eigval:                                     1.00E-05
                        --------------------------------------------------------
                        level_shift [a.u.]:                             0.000000
                        --------------------------------------------------------
                        Outer loop SCF in use 
                        No variables optimised in outer loop
                        eps_scf                                         1.00E-06
                        max_scf                                               25
                        No outer loop optimization
                        step_size                                       5.00E-01

 Number of electrons:                                                       1680
 Number of occupied orbitals:                                                840
 Number of molecular orbitals:                                               840

 Number of orbital functions:                                               3502
 Number of independent orbital functions:                                   3502

 Extrapolation method: initial_guess


 SCF WAVEFUNCTION OPTIMIZATION

  ----------------------------------- OT ---------------------------------------
  Minimizer      : DIIS                : direct inversion
                                         in the iterative subspace
                                         using   7 DIIS vectors
                                         safer DIIS on
  Preconditioner : FULL_SINGLE_INVERSE : inversion of 
                                         H + eS - 2*(Sc)(c^T*H*c+const)(Sc)^T
  Precond_solver : DEFAULT
  stepsize       :    0.08000000                  energy_gap     :    0.05000000
  eps_taylor     :   0.10000E-15                  max_taylor     :             4
  ----------------------------------- OT ---------------------------------------

  Step     Update method      Time    Convergence         Total energy    Change
  ------------------------------------------------------------------------------
     1 OT DIIS     0.80E-01    1.8     0.05004202     -5537.7072334100 -5.54E+03
     2 OT DIIS     0.80E-01    1.2     0.31663469     -4226.6208294735  1.31E+03
     3 OT DIIS     0.80E-01    1.0     0.02003235     -5596.4143039804 -1.37E+03
     4 OT DIIS     0.80E-01    1.0     0.00628788     -5609.5509127722 -1.31E+01
     5 OT DIIS     0.80E-01    1.0     0.00539829     -5621.7368702345 -1.22E+01
     6 OT DIIS     0.80E-01    1.0     0.00497350     -5636.8795923544 -1.51E+01
     7 OT DIIS     0.80E-01    1.0     0.00404232     -5646.4557790814 -9.58E+00
     8 OT DIIS     0.80E-01    1.0     0.00287519     -5663.8528343007 -1.74E+01
     9 OT DIIS     0.80E-01    1.0     0.00237569     -5673.1484515151 -9.30E+00
    10 OT DIIS     0.80E-01    1.0     0.00249297     -5681.7699773905 -8.62E+00
    11 OT DIIS     0.80E-01    1.0     0.00192971     -5682.4764981833 -7.07E-01
    12 OT DIIS     0.80E-01    1.0     0.00161858     -5688.4368905710 -5.96E+00
    13 OT DIIS     0.80E-01    1.0     0.00145459     -5693.2036979846 -4.77E+00
    14 OT DIIS     0.80E-01    1.0     0.00136771     -5696.3629426302 -3.16E+00
    15 OT DIIS     0.80E-01    1.0     0.00120278     -5696.9397619336 -5.77E-01
    16 OT DIIS     0.80E-01    1.0     0.00122257     -5699.1326937875 -2.19E+00
    17 OT DIIS     0.80E-01    1.0     0.00115071     -5701.3591838026 -2.23E+00
    18 OT DIIS     0.80E-01    1.0     0.00098170     -5702.9836376979 -1.62E+00
    19 OT DIIS     0.80E-01    1.0     0.00089094     -5704.5433384521 -1.56E+00
    20 OT DIIS     0.80E-01    1.0     0.00094029     -5706.7755828346 -2.23E+00
    21 OT DIIS     0.80E-01    1.0     0.00080129     -5707.2542923066 -4.79E-01
    22 OT DIIS     0.80E-01    1.0     0.00071896     -5708.9733910930 -1.72E+00
    23 OT DIIS     0.80E-01    1.0     0.00112598     -5709.7162282381 -7.43E-01
    24 OT DIIS     0.80E-01    1.0     0.00082742     -5709.7246256522 -8.40E-03
    25 OT DIIS     0.80E-01    1.0     0.00068790     -5709.9871489931 -2.63E-01
    26 OT DIIS     0.80E-01    1.0     0.00065763     -5710.4757728264 -4.89E-01
    27 OT DIIS     0.80E-01    1.0     0.00063297     -5711.8210008426 -1.35E+00
    28 OT DIIS     0.80E-01    1.0     0.00054642     -5712.6795487641 -8.59E-01
    29 OT DIIS     0.80E-01    1.0     0.00048425     -5713.9018614556 -1.22E+00
    30 OT DIIS     0.80E-01    1.0     0.00047261     -5714.2171504860 -3.15E-01
    31 OT DIIS     0.80E-01    1.0     0.00045642     -5714.4723120235 -2.55E-01
    32 OT DIIS     0.80E-01    1.0     0.00041660     -5715.2297912604 -7.57E-01
    33 OT DIIS     0.80E-01    1.0     0.00041447     -5716.0392997747 -8.10E-01
    34 OT DIIS     0.80E-01    1.0     0.00043758     -5716.0222922220  1.70E-02
    35 OT DIIS     0.80E-01    1.0     0.00038230     -5716.4742868153 -4.52E-01
    36 OT DIIS     0.80E-01    1.0     0.00032458     -5716.9379551984 -4.64E-01
    37 OT DIIS     0.80E-01    1.0     0.00030220     -5717.3491252316 -4.11E-01
    38 OT DIIS     0.80E-01    1.0     0.00028001     -5717.5987949544 -2.50E-01
    39 OT DIIS     0.80E-01    1.0     0.00026699     -5717.8802714307 -2.81E-01
    40 OT DIIS     0.80E-01    0.9     0.00025673     -5718.0022980876 -1.22E-01
    41 OT DIIS     0.80E-01    1.0     0.00024352     -5718.2005228738 -1.98E-01
    42 OT DIIS     0.80E-01    0.9     0.00023836     -5718.2931957553 -9.27E-02
    43 OT DIIS     0.80E-01    0.9     0.00022143     -5718.5146212102 -2.21E-01
    44 OT DIIS     0.80E-01    0.9     0.00020637     -5718.6626183972 -1.48E-01
    45 OT DIIS     0.80E-01    1.0     0.00019267     -5718.8968844463 -2.34E-01
    46 OT DIIS     0.80E-01    1.0     0.00019113     -5718.9904123585 -9.35E-02
    47 OT DIIS     0.80E-01    0.9     0.00017972     -5719.0759652376 -8.56E-02
    48 OT DIIS     0.80E-01    0.9     0.00017334     -5719.1446114644 -6.86E-02
    49 OT DIIS     0.80E-01    0.9     0.00016661     -5719.2408769083 -9.63E-02
    50 OT DIIS     0.80E-01    1.0     0.00015826     -5719.3516884969 -1.11E-01
    51 OT DIIS     0.80E-01    1.0     0.00015204     -5719.4246007625 -7.29E-02
    52 OT DIIS     0.80E-01    1.0     0.00014213     -5719.5533128982 -1.29E-01
    53 OT DIIS     0.80E-01    1.0     0.00013894     -5719.5950107927 -4.17E-02
    54 OT DIIS     0.80E-01    0.9     0.00013567     -5719.6562648563 -6.13E-02
    55 OT DIIS     0.80E-01    0.9     0.00013303     -5719.6777517953 -2.15E-02
    56 OT DIIS     0.80E-01    0.9     0.00013082     -5719.6958663330 -1.81E-02
    57 OT DIIS     0.80E-01    1.0     0.00012583     -5719.7395032367 -4.36E-02
    58 OT DIIS     0.80E-01    0.9     0.00012211     -5719.7822583909 -4.28E-02
    59 OT DIIS     0.80E-01    0.9     0.00010975     -5719.9180033872 -1.36E-01
    60 OT DIIS     0.80E-01    0.9     0.00010568     -5719.9620281947 -4.40E-02

  Leaving inner SCF loop after reaching    60 steps.


  Electronic density on regular grids:      -1679.9999998408        0.0000001592
  Core density on regular grids:             1679.9999998971       -0.0000001029
  Total dipole moment perpendicular to 
  the slab [electrons-Angstroem]:               1.0505523118
  Total charge density on r-space grids:        0.0000000563
  Total charge density g-space grids:           0.0000000563

  Overlap energy of the core charge distribution:               0.00000135531258
  Self energy of the core charge distribution:             -11448.09706919599375
  Core Hamiltonian energy:                                   2914.14526857672308
  Hartree energy:                                            3729.47544531998119
  Exchange-correlation energy:                               -915.48567425070041

  Total energy:                                             -5719.96202819467726

  outer SCF iter =    1 RMS gradient =   0.11E-03 energy =      -5719.9620281947

  ----------------------------------- OT ---------------------------------------
  Minimizer      : DIIS                : direct inversion
                                         in the iterative subspace
                                         using   7 DIIS vectors
                                         safer DIIS on
  Preconditioner : FULL_SINGLE_INVERSE : inversion of 
                                         H + eS - 2*(Sc)(c^T*H*c+const)(Sc)^T
  Precond_solver : DEFAULT
  stepsize       :    0.08000000                  energy_gap     :    0.05000000
  eps_taylor     :   0.10000E-15                  max_taylor     :             4
  ----------------------------------- OT ---------------------------------------

  Step     Update method      Time    Convergence         Total energy    Change
  ------------------------------------------------------------------------------
     1 OT DIIS     0.80E-01    2.4     0.00105481     -5720.0292950720 -6.73E-02
     2 OT DIIS     0.80E-01    1.0     0.00131900     -5720.2385542117 -2.09E-01
     3 OT DIIS     0.80E-01    1.0     0.00188251     -5720.2738439085 -3.53E-02
     4 OT DIIS     0.80E-01    1.0     0.00096623     -5720.3997717401 -1.26E-01
     5 OT DIIS     0.80E-01    1.0     0.00101695     -5720.5269766422 -1.27E-01
     6 OT DIIS     0.80E-01    1.0     0.00117381     -5720.6255785406 -9.86E-02
     7 OT DIIS     0.80E-01    1.0     0.00110339     -5720.6776128815 -5.20E-02
     8 OT DIIS     0.80E-01    1.0     0.00086077     -5720.7041500558 -2.65E-02
     9 OT DIIS     0.80E-01    1.0     0.00047969     -5720.7286823691 -2.45E-02
    10 OT DIIS     0.80E-01    0.9     0.00045208     -5720.7454191556 -1.67E-02
    11 OT DIIS     0.80E-01    1.0     0.00042910     -5720.7532023874 -7.78E-03
    12 OT DIIS     0.80E-01    1.0     0.00043177     -5720.7611626326 -7.96E-03
    13 OT DIIS     0.80E-01    0.9     0.00044089     -5720.7800559351 -1.89E-02
    14 OT DIIS     0.80E-01    0.9     0.00040751     -5720.8215923128 -4.15E-02
    15 OT DIIS     0.80E-01    1.0     0.00051240     -5720.8483677125 -2.68E-02
    16 OT DIIS     0.80E-01    0.9     0.00046624     -5720.8542570374 -5.89E-03
    17 OT DIIS     0.80E-01    0.9     0.00033605     -5720.8598706459 -5.61E-03
    18 OT DIIS     0.80E-01    0.9     0.00022891     -5720.8616143552 -1.74E-03
    19 OT DIIS     0.80E-01    1.0     0.00024073     -5720.8660888390 -4.47E-03
    20 OT DIIS     0.80E-01    1.0     0.00015814     -5720.8686974689 -2.61E-03
    21 OT DIIS     0.80E-01    1.0     0.00011799     -5720.8713198118 -2.62E-03
    22 OT DIIS     0.80E-01    0.9     0.00014166     -5720.8729448209 -1.63E-03
    23 OT DIIS     0.80E-01    1.0     0.00015214     -5720.8727804213  1.64E-04
    24 OT DIIS     0.80E-01    1.0     0.00011628     -5720.8741376841 -1.36E-03
    25 OT DIIS     0.80E-01    1.0     0.00011629     -5720.8747278234 -5.90E-04
    26 OT DIIS     0.80E-01    1.0     0.00006677     -5720.8758408900 -1.11E-03
    27 OT DIIS     0.80E-01    1.0     0.00007181     -5720.8761361755 -2.95E-04
    28 OT DIIS     0.80E-01    1.0     0.00008608     -5720.8763754909 -2.39E-04
    29 OT DIIS     0.80E-01    0.9     0.00005827     -5720.8765344563 -1.59E-04
    30 OT DIIS     0.80E-01    1.0     0.00005187     -5720.8767519525 -2.17E-04
    31 OT DIIS     0.80E-01    1.0     0.00005787     -5720.8769803176 -2.28E-04
    32 OT DIIS     0.80E-01    1.0     0.00004989     -5720.8770766733 -9.64E-05
    33 OT DIIS     0.80E-01    1.0     0.00005254     -5720.8772719439 -1.95E-04
    34 OT DIIS     0.80E-01    0.9     0.00003757     -5720.8772760292 -4.09E-06
    35 OT DIIS     0.80E-01    0.9     0.00003862     -5720.8774885567 -2.13E-04
    36 OT DIIS     0.80E-01    1.0     0.00004215     -5720.8777069033 -2.18E-04
    37 OT DIIS     0.80E-01    1.0     0.00004267     -5720.8776466482  6.03E-05
    38 OT DIIS     0.80E-01    1.0     0.00003644     -5720.8777068046 -6.02E-05
    39 OT DIIS     0.80E-01    0.9     0.00003645     -5720.8778716215 -1.65E-04
    40 OT DIIS     0.80E-01    1.0     0.00003377     -5720.8779388678 -6.72E-05
    41 OT SD       0.80E-01    1.0     0.00003383     -5720.8780543412 -1.15E-04
    42 OT DIIS     0.80E-01    1.0     0.00012000     -5720.8778138927  2.40E-04
    43 OT DIIS     0.80E-01    1.0     0.00002799     -5720.8782640946 -4.50E-04
    44 OT DIIS     0.80E-01    1.0     0.00002490     -5720.8783284547 -6.44E-05
    45 OT DIIS     0.80E-01    0.9     0.00002660     -5720.8784050638 -7.66E-05
    46 OT DIIS     0.80E-01    1.0     0.00002890     -5720.8783661243  3.89E-05
    47 OT DIIS     0.80E-01    0.9     0.00002873     -5720.8784632825 -9.72E-05
    48 OT SD       0.80E-01    1.0     0.00002112     -5720.8785596509 -9.64E-05
    49 OT DIIS     0.80E-01    1.0     0.00007749     -5720.8784390070  1.21E-04
    50 OT DIIS     0.80E-01    1.0     0.00001005     -5720.8786095676 -1.71E-04
    51 OT DIIS     0.80E-01    1.0     0.00000754     -5720.8786182289 -8.66E-06
    52 OT DIIS     0.80E-01    1.0     0.00000817     -5720.8786206759 -2.45E-06
    53 OT DIIS     0.80E-01    1.0     0.00000769     -5720.8786273190 -6.64E-06
    54 OT DIIS     0.80E-01    1.0     0.00000612     -5720.8786466146 -1.93E-05
    55 OT DIIS     0.80E-01    0.9     0.00000533     -5720.8786489925 -2.38E-06
    56 OT DIIS     0.80E-01    1.0     0.00000680     -5720.8786552326 -6.24E-06
    57 OT DIIS     0.80E-01    1.0     0.00000429     -5720.8786654080 -1.02E-05
    58 OT DIIS     0.80E-01    0.9     0.00000449     -5720.8786699043 -4.50E-06
    59 OT DIIS     0.80E-01    1.0     0.00000484     -5720.8786752630 -5.36E-06
    60 OT DIIS     0.80E-01    1.0     0.00000388     -5720.8786792257 -3.96E-06

  Leaving inner SCF loop after reaching    60 steps.


  Electronic density on regular grids:      -1679.9999998412        0.0000001588
  Core density on regular grids:             1679.9999998971       -0.0000001029
  Total dipole moment perpendicular to 
  the slab [electrons-Angstroem]:               1.6900701567
  Total charge density on r-space grids:        0.0000000559
  Total charge density g-space grids:           0.0000000559

  Overlap energy of the core charge distribution:               0.00000135531258
  Self energy of the core charge distribution:             -11448.09706919599375
  Core Hamiltonian energy:                                   2911.80959074148996
  Hartree energy:                                            3730.90987515527468
  Exchange-correlation energy:                               -915.50107728178443

  Total energy:                                             -5720.87867922570058

  outer SCF iter =    2 RMS gradient =   0.39E-05 energy =      -5720.8786792257

  ----------------------------------- OT ---------------------------------------
  Minimizer      : DIIS                : direct inversion
                                         in the iterative subspace
                                         using   7 DIIS vectors
                                         safer DIIS on
  Preconditioner : FULL_SINGLE_INVERSE : inversion of 
                                         H + eS - 2*(Sc)(c^T*H*c+const)(Sc)^T
  Precond_solver : DEFAULT
  stepsize       :    0.08000000                  energy_gap     :    0.05000000
  eps_taylor     :   0.10000E-15                  max_taylor     :             4
  ----------------------------------- OT ---------------------------------------

  Step     Update method      Time    Convergence         Total energy    Change
  ------------------------------------------------------------------------------
     1 OT DIIS     0.80E-01    2.3     0.00000669     -5720.8786819439 -2.72E-06
     2 OT DIIS     0.80E-01    0.9     0.00000871     -5720.8786888710 -6.93E-06
     3 OT DIIS     0.80E-01    0.9     0.00000534     -5720.8786921509 -3.28E-06
     4 OT DIIS     0.80E-01    0.9     0.00000701     -5720.8787025744 -1.04E-05
     5 OT DIIS     0.80E-01    0.9     0.00000203     -5720.8787071843 -4.61E-06
     6 OT DIIS     0.80E-01    0.9     0.00000164     -5720.8787075935 -4.09E-07
     7 OT DIIS     0.80E-01    0.9     0.00000160     -5720.8787083261 -7.33E-07
     8 OT DIIS     0.80E-01    0.9     0.00000124     -5720.8787092790 -9.53E-07
     9 OT DIIS     0.80E-01    0.9     0.00000128     -5720.8787093919 -1.13E-07
    10 OT DIIS     0.80E-01    0.9     0.00000082     -5720.8787098698 -4.78E-07

  *** SCF run converged in    10 steps ***


  Electronic density on regular grids:      -1679.9999998412        0.0000001588
  Core density on regular grids:             1679.9999998971       -0.0000001029
  Total dipole moment perpendicular to 
  the slab [electrons-Angstroem]:               1.6917971107
  Total charge density on r-space grids:        0.0000000559
  Total charge density g-space grids:           0.0000000559

  Overlap energy of the core charge distribution:               0.00000135531258
  Self energy of the core charge distribution:             -11448.09706919599375
  Core Hamiltonian energy:                                   2911.80958874552198
  Hartree energy:                                            3730.90987180251113
  Exchange-correlation energy:                               -915.50110257717176

  Total energy:                                             -5720.87870986982034

  outer SCF iter =    3 RMS gradient =   0.82E-06 energy =      -5720.8787098698
  outer SCF loop converged in   3 iterations or  130 steps


 ENERGY| Total FORCE_EVAL ( QS ) energy [a.u.]:            -5720.878709991946380

 ATOMIC FORCES in [a.u.]

 # Atom   Kind   Element          X              Y              Z
      1      1      Sr          0.00001869     0.00000072     0.02960500
      2      1      Sr         -0.00001875    -0.00000149     0.02960582
      3      1      Sr          0.00000668     0.00003553     0.02961120
      4      1      Sr          0.00002690    -0.00003549     0.02961201
      5      1      Sr         -0.00000610     0.00003490     0.02961030
      6      1      Sr         -0.00002640    -0.00003471     0.02961124
      7      1      Sr          0.00010821    -0.00002190     0.00293600
      8      1      Sr         -0.00010828     0.00000669     0.00292687
      9      1      Sr          0.00006250     0.00009292     0.00299655
     10      1      Sr          0.00015290    -0.00007995     0.00301960
     11      1      Sr         -0.00006078     0.00011951     0.00300107
     12      1      Sr         -0.00015363    -0.00011171     0.00301298
     13      1      Sr          0.00016769     0.00104160     0.01569693
     14      1      Sr         -0.00038138    -0.00169835     0.01419349
     15      1      Sr          0.00003788     0.00115389     0.01372703
     16      1      Sr          0.00251028    -0.00019559     0.01474436
     17      1      Sr          0.00007093    -0.00073397     0.01559458
     18      1      Sr         -0.00241445     0.00033049     0.01533724
     19      2      Hf         -0.00536942     0.01324293    -0.03798047
     20      2      Hf         -0.00541862     0.01329237    -0.03806773
     21      2      Hf         -0.01779903    -0.02401906    -0.01711162
     22      2      Hf         -0.01774796    -0.02390516    -0.01713560
     23      2      Hf          0.00274812     0.00573193     0.02138467
     24      2      Hf          0.00276892     0.00573147     0.02134016
     25      2      Hf          0.01111255     0.02868191     0.03983722
     26      2      Hf          0.01117900     0.02859061     0.03981511
     27      2      Hf          0.00962143    -0.00699540    -0.00262805
     28      2      Hf          0.00958481    -0.00705273    -0.00272474
     29      2      Hf         -0.00165466     0.01030005     0.01374127
     30      2      Hf         -0.00170135     0.01031556     0.01356990
     31      2      Hf          0.01261353    -0.03766772     0.01378782
     32      2      Hf          0.01256135    -0.03759000     0.01385510
     33      2      Hf         -0.01796299     0.03550923    -0.01783362
     34      2      Hf         -0.01786021     0.03548139    -0.01779365
     35      2      Hf          0.00754172    -0.00784994    -0.00850519
     36      2      Hf          0.00763342    -0.00825504    -0.00868095
     37      2      Hf         -0.00780668     0.00802119     0.00804866
     38      2      Hf         -0.00780614     0.00792778     0.00870615
     39      2      Hf          0.01502325    -0.03777975     0.01278133
     40      2      Hf          0.01482420    -0.03753610     0.01247019
     41      2      Hf         -0.01482790     0.03744215    -0.01270114
     42      2      Hf         -0.01479241     0.03793770    -0.01237071
     43      2      Hf          0.00223251    -0.01026261    -0.01432020
     44      2      Hf          0.00307200    -0.01005739    -0.01125290
     45      2      Hf         -0.00922859     0.00582064     0.00317302
     46      2      Hf         -0.00922709     0.00882812     0.00363027
     47      2      Hf          0.01736626    -0.03439348     0.01643531
     48      2      Hf          0.01772134    -0.03707059     0.01785823
     49      2      Hf         -0.01314952     0.03809272    -0.01277395
     50      2      Hf         -0.01293920     0.03729426    -0.01533416
     51      2      Hf          0.01337551     0.01742221     0.00582141
     52      2      Hf          0.01905440     0.03078506     0.01633407
     53      2      Hf          0.00602798    -0.00427922     0.02431422
     54      2      Hf          0.00037342    -0.01879527     0.02816640
     55      2      Hf         -0.00987258    -0.03733522    -0.03240798
     56      2      Hf         -0.00616786    -0.02291800    -0.03231234
     57      2      Hf         -0.00527442     0.01658059    -0.00812085
     58      2      Hf          0.00143618    -0.00838697    -0.02959448
     59      3      Ti          0.00000730     0.00001453    -0.01718785
     60      3      Ti          0.00000554     0.00012450    -0.01734035
     61      3      Ti         -0.00001134     0.00004435    -0.01678506
     62      3      Ti         -0.00000061    -0.00008887    -0.01702932
     63      3      Ti         -0.00000463    -0.00003643    -0.01714814
     64      3      Ti         -0.00000359    -0.00005190    -0.01748130
     65      3      Ti          0.00015975    -0.00019314    -0.00322983
     66      3      Ti         -0.00000462     0.00099068    -0.00303549
     67      3      Ti          0.00001837     0.00028416     0.00014389
     68      3      Ti         -0.00018580    -0.00050854    -0.00096059
     69      3      Ti         -0.00028268    -0.00009446    -0.00272229
     70      3      Ti          0.00014357    -0.00034834    -0.00479102
     71      3      Ti         -0.02617674     0.01023398    -0.02331096
     72      3      Ti          0.02633596     0.00690971    -0.04412094
     73      3      Ti          0.00325312     0.01683076    -0.01180347
     74      3      Ti          0.00756798    -0.02726890    -0.03139457
     75      3      Ti          0.00073091    -0.01505069    -0.03161582
     76      3      Ti         -0.00917706     0.00236359    -0.05444362
     77      4      O           0.00000004     0.00004233    -0.00125338
     78      4      O          -0.00000080    -0.00004350    -0.00121172
     79      4      O          -0.00000142    -0.00014975    -0.00127165
     80      4      O          -0.00000227     0.00007237    -0.00129994
     81      4      O          -0.00000124    -0.00002610    -0.00124948
     82      4      O          -0.00000011     0.00009622    -0.00122370
     83      4      O          -0.00003776    -0.00002449    -0.00158603
     84      4      O           0.00003293    -0.00002545    -0.00157851
     85      4      O          -0.00006131    -0.00000143    -0.00165920
     86      4      O          -0.00008984     0.00002773    -0.00158224
     87      4      O           0.00007506    -0.00000225    -0.00165350
     88      4      O           0.00009207     0.00002753    -0.00159229
     89      4      O          -0.00000738    -0.00000509    -0.01436431
     90      4      O           0.00000068    -0.00003113    -0.01432859
     91      4      O           0.00000725    -0.00001066    -0.01446931
     92      4      O           0.00000341     0.00001895    -0.01440847
     93      4      O           0.00000534     0.00000735    -0.01438710
     94      4      O          -0.00000206     0.00001402    -0.01428802
     95      4      O           0.00006101     0.00055339    -0.00087884
     96      4      O          -0.00003293    -0.00043781    -0.00046773
     97      4      O          -0.00006295    -0.00119270    -0.00107623
     98      4      O           0.00001315     0.00040461    -0.00108253
     99      4      O           0.00005864    -0.00012119    -0.00062902
    100      4      O          -0.00002792     0.00066137    -0.00073011
    101      4      O           0.00004869    -0.00009039    -0.00015257
    102      4      O          -0.00016924    -0.00006743    -0.00051746
    103      4      O          -0.00044636    -0.00010607    -0.00045027
    104      4      O          -0.00070768     0.00001945    -0.00053205
    105      4      O           0.00061170     0.00003568    -0.00064068
    106      4      O           0.00074628     0.00016466    -0.00026508
    107      4      O          -0.00006057     0.00003245     0.00552206
    108      4      O          -0.00000755    -0.00016516     0.00587655
    109      4      O           0.00005005    -0.00007105     0.00473913
    110      4      O           0.00004339     0.00007176     0.00512743
    111      4      O           0.00006009     0.00003267     0.00552590
    112      4      O          -0.00002368     0.00004657     0.00619680
    113      4      O           0.00482748    -0.00268824     0.00635286
    114      4      O           0.00026692    -0.00195908     0.00817892
    115      4      O          -0.00286240    -0.00376929     0.00264838
    116      4      O          -0.00502152    -0.01102075    -0.02221653
    117      4      O           0.00324164     0.00364994    -0.00432423
    118      4      O           0.00216144    -0.00006735     0.01310963
    119      4      O          -0.01069295    -0.00643604    -0.01956468
    120      4      O           0.00327087    -0.00088502     0.01575371
    121      4      O          -0.00014703    -0.00110041     0.00865230
    122      4      O          -0.00729263     0.00078451     0.00545674
    123      4      O           0.01200371    -0.00344863     0.00712131
    124      4      O           0.00893286     0.00280679    -0.00268107
    125      4      O           0.00176838    -0.00074690     0.01661766
    126      4      O          -0.00265860    -0.00075352     0.01661521
    127      4      O           0.00080876    -0.00165169     0.01082753
    128      4      O          -0.00016779     0.00120905     0.01155641
    129      4      O           0.00065315     0.00151269     0.01588426
    130      4      O           0.00042560    -0.00042480     0.01902993
    131      4      O          -0.02390619    -0.01076117     0.01105756
    132      4      O          -0.02355406    -0.00872838     0.01106474
    133      4      O           0.03321497     0.03339478     0.01438983
    134      4      O           0.03355875     0.03344946     0.01449053
    135      4      O          -0.00393432    -0.02900704    -0.01219885
    136      4      O          -0.00368826    -0.02849074    -0.01210109
    137      4      O           0.01065768    -0.02651950    -0.01125984
    138      4      O           0.01106707    -0.02466424    -0.01124985
    139      4      O          -0.01318690     0.01343623    -0.02410166
    140      4      O          -0.01305969     0.01308864    -0.02392378
    141      4      O          -0.01661473    -0.00471577     0.00353072
    142      4      O          -0.01675862    -0.00652334     0.00350646
    143      4      O          -0.01833464    -0.03321688    -0.00201562
    144      4      O          -0.01873612    -0.03508147    -0.00195962
    145      4      O           0.01350180     0.00340768     0.00579613
    146      4      O           0.01302287     0.00258016     0.00572604
    147      4      O          -0.00075753    -0.01916556    -0.00963178
    148      4      O          -0.00045598    -0.02047625    -0.00966042
    149      4      O           0.00175096     0.01950588     0.00613487
    150      4      O           0.00161892     0.01884205     0.00610060
    151      4      O           0.00328907     0.01424793     0.01195196
    152      4      O           0.00316998     0.01316412     0.01189266
    153      4      O           0.00217328    -0.01098656     0.00309714
    154      4      O           0.00253770    -0.01230483     0.00317511
    155      4      O           0.00753430    -0.00057811     0.00435320
    156      4      O           0.00795209     0.00066531     0.00428839
    157      4      O          -0.00007644     0.00029131     0.01073005
    158      4      O          -0.00042373     0.00171756     0.01083249
    159      4      O          -0.00115897    -0.00584718    -0.01668136
    160      4      O          -0.00132739    -0.00425060    -0.01666058
    161      4      O          -0.00083422     0.00338779     0.00783203
    162      4      O          -0.00089656     0.00441478     0.00792439
    163      4      O          -0.00464083    -0.02029079    -0.00777194
    164      4      O          -0.00451901    -0.01915210    -0.00787409
    165      4      O           0.00337760     0.01972121     0.00707727
    166      4      O           0.00300696     0.02069213     0.00719733
    167      4      O          -0.00317137     0.01171663    -0.00164852
    168      4      O          -0.00353912     0.01284846    -0.00144484
    169      4      O           0.00204324    -0.01253922     0.00256256
    170      4      O           0.00189182    -0.01120763     0.00158949
    171      4      O           0.00309284     0.00028458    -0.01225252
    172      4      O           0.00343012    -0.00067952    -0.01221369
    173      4      O          -0.00396984     0.00123996     0.01147546
    174      4      O          -0.00438402    -0.00030787     0.01147496
    175      4      O          -0.00218867    -0.00346564    -0.00708921
    176      4      O          -0.00206091    -0.00482539    -0.00716149
    177      4      O           0.00070671     0.00516792     0.00660803
    178      4      O           0.00093370     0.00402956     0.00640411
    179      4      O          -0.00147593    -0.01842025    -0.00734456
    180      4      O          -0.00228166    -0.02022373    -0.00649222
    181      4      O           0.00165878     0.02021045     0.00894461
    182      4      O           0.00103870     0.01938171     0.00864103
    183      4      O          -0.00180019     0.01236292    -0.00166980
    184      4      O          -0.00245579     0.01094110    -0.00252008
    185      4      O          -0.00226107    -0.01272395    -0.01232302
    186      4      O          -0.00274036    -0.01455401    -0.00879305
    187      4      O          -0.00040320    -0.00090934    -0.01116946
    188      4      O          -0.00019447    -0.00026595    -0.01166467
    189      4      O          -0.00582820    -0.00069563    -0.00314556
    190      4      O          -0.00614468    -0.00062041    -0.00429461
    191      4      O           0.00034120    -0.00432449    -0.00860953
    192      4      O           0.00056241    -0.00355387    -0.00871697
    193      4      O           0.00167582     0.00433292     0.01589564
    194      4      O           0.00217178     0.00546075     0.01288487
    195      4      O          -0.02997513    -0.03475543    -0.01142904
    196      4      O          -0.02686695    -0.03293714    -0.01384281
    197      4      O           0.02226631     0.01091254    -0.00997879
    198      4      O           0.02193883     0.00905357    -0.00971859
    199      4      O          -0.01061459     0.02694597     0.01021734
    200      4      O          -0.00886414     0.02240482     0.01029070
    201      4      O          -0.00068162     0.03912628     0.01114733
    202      4      O           0.01438637     0.02472923     0.02128149
    203      4      O           0.01374851     0.00450229    -0.00625110
    204      4      O           0.01749094     0.00421575    -0.00362562
    205      4      O           0.00180765    -0.00776716     0.00883134
    206      4      O           0.01539904    -0.01125891     0.03229235
    207      4      O          -0.00969634    -0.00433835    -0.00647328
    208      4      O          -0.01079902    -0.00197483    -0.00609708
    209      4      O           0.00955203     0.03496011    -0.00410296
    210      4      O           0.02043882     0.02853690     0.00977166
 SUM OF ATOMIC FORCES           0.01206637    -0.00403082    -0.01751913     0.02165098

 STRESS| Analytical stress tensor [GPa]
 STRESS|                        x                   y                   z
 STRESS|      x       -7.89448088603E+00  -7.20325299249E+00  -1.30275227741E+00
 STRESS|      y       -7.20325299249E+00  -1.31200121401E+00  -1.13804490929E+00
 STRESS|      z       -1.30275227741E+00  -1.13804490929E+00  -9.54020004453E-01
 STRESS| 1/3 Trace                                            -3.38683403483E+00
 STRESS| Determinant                                           3.07120061168E+01

 STRESS| Eigenvectors and eigenvalues of the analytical stress tensor [GPa]
 STRESS|                        1                   2                   3
 STRESS| Eigenvalues  -1.27706665706E+01  -7.21769100829E-01   3.33193356691E+00
 STRESS|      x           0.831391241967     -0.153980856921     -0.533927428105
 STRESS|      y           0.536875479806     -0.025312545180      0.843281681433
 STRESS|      z           0.143364298080      0.987749548599     -0.061623918066

 -------------------------------------------------------------------------------
 -                                                                             -
 -                                DBCSR STATISTICS                             -
 -                                                                             -
 -------------------------------------------------------------------------------
 COUNTER                                    TOTAL       BLAS       SMM       ACC
 flops    14 x     8 x     8               193536       0.0%    100.0%      0.0%     
 flops     8 x     8 x   431               331008       0.0%    100.0%      0.0%     
 flops     8 x     8 x   432               331776       0.0%    100.0%      0.0%     
 flops     8 x     8 x   444               340992       0.0%    100.0%      0.0%     
 flops    26 x     8 x     8              1158144       0.0%    100.0%      0.0%     
 flops    13 x     8 x     8              1337856       0.0%    100.0%      0.0%     
 flops    14 x    32 x     8             10063872       0.0%    100.0%      0.0%     
 flops    14 x     8 x    32             10063872       0.0%    100.0%      0.0%     
 flops     8 x    32 x   431             17212416       0.0%    100.0%      0.0%     
 flops    32 x     8 x   431             17212416       0.0%    100.0%      0.0%     
 flops     8 x    32 x   432             17252352       0.0%    100.0%      0.0%     
 flops    32 x     8 x   432             17252352       0.0%    100.0%      0.0%     
 flops     8 x    32 x   444             17731584       0.0%    100.0%      0.0%     
 flops    32 x     8 x   444             17731584       0.0%    100.0%      0.0%     
 flops    26 x    32 x     8             60223488       0.0%    100.0%      0.0%     
 flops    26 x     8 x    32             60223488       0.0%    100.0%      0.0%     
 flops    13 x    32 x     8             69568512       0.0%    100.0%      0.0%     
 flops    13 x     8 x    32             69568512       0.0%    100.0%      0.0%     
 flops    14 x     8 x    14            279417600       0.0%    100.0%      0.0%     
 flops    52 x   104 x   104            724412416       0.0%    100.0%      0.0%     
 flops    53 x   104 x   104            738343424       0.0%    100.0%      0.0%     
 flops    65 x   104 x   104            905515520       0.0%    100.0%      0.0%     
 flops    66 x   104 x   104            919446528       0.0%    100.0%      0.0%     
 flops    14 x    14 x   104            941129280       0.0%    100.0%      0.0%     
 flops    40 x   104 x   104            963921920       0.0%    100.0%      0.0%     
 flops    13 x     8 x    14           1062661600       0.0%    100.0%      0.0%     
 flops    14 x     8 x    13           1062661600       0.0%    100.0%      0.0%     
 flops    78 x   104 x   104           1086618624       0.0%    100.0%      0.0%     
 flops    14 x    32 x    32           1086898176       0.0%    100.0%      0.0%     
 flops    26 x     8 x    14           1108307200       0.0%    100.0%      0.0%     
 flops    14 x     8 x    26           1108307200       0.0%    100.0%      0.0%     
 flops    80 x   104 x   104           1114480640       0.0%    100.0%      0.0%     
 flops    52 x   104 x   431           1240011136       0.0%    100.0%      0.0%     
 flops    52 x   104 x   432           1242888192       0.0%    100.0%      0.0%     
 flops    53 x   104 x   431           1263857504       0.0%    100.0%      0.0%     
 flops    53 x   104 x   432           1266789888       0.0%    100.0%      0.0%     
 flops    52 x   104 x   444           1277412864       0.0%    100.0%      0.0%     
 flops    53 x   104 x   444           1301978496       0.0%    100.0%      0.0%     
 flops    64 x   104 x   104           1542275072       0.0%    100.0%      0.0%     
 flops    65 x   104 x   431           1550013920       0.0%    100.0%      0.0%     
 flops    65 x   104 x   432           1553610240       0.0%    100.0%      0.0%     
 flops    66 x   104 x   431           1573860288       0.0%    100.0%      0.0%     
 flops    66 x   104 x   432           1577511936       0.0%    100.0%      0.0%     
 flops    65 x   104 x   444           1596766080       0.0%    100.0%      0.0%     
 flops    66 x   104 x   444           1621331712       0.0%    100.0%      0.0%     
 flops    52 x   104 x   128           1783169024       0.0%    100.0%      0.0%     
 flops    52 x   128 x   104           1783169024       0.0%    100.0%      0.0%     
 flops    53 x   104 x   128           1817460736       0.0%    100.0%      0.0%     
 flops    53 x   128 x   104           1817460736       0.0%    100.0%      0.0%     
 flops    32 x    32 x   431           1858940928       0.0%    100.0%      0.0%     
 flops    78 x   104 x   431           1860016704       0.0%    100.0%      0.0%     
 flops    32 x    32 x   432           1863254016       0.0%    100.0%      0.0%     
 flops    78 x   104 x   432           1864332288       0.0%    100.0%      0.0%     
 flops    80 x   104 x   431           1907709440       0.0%    100.0%      0.0%     
 flops    80 x   104 x   432           1912135680       0.0%    100.0%      0.0%     
 flops    32 x    32 x   444           1915011072       0.0%    100.0%      0.0%     
 flops    78 x   104 x   444           1916119296       0.0%    100.0%      0.0%     
 flops    80 x   104 x   444           1965250560       0.0%    100.0%      0.0%     
 flops    65 x   104 x   128           2228961280       0.0%    100.0%      0.0%     
 flops    65 x   128 x   104           2228961280       0.0%    100.0%      0.0%     
 flops    66 x   128 x   104           2263252992       0.0%    100.0%      0.0%     
 flops    66 x   104 x   128           2263252992       0.0%    100.0%      0.0%     
 flops    14 x    14 x   128           2316625920       0.0%    100.0%      0.0%     
 flops    40 x   104 x   128           2372730880       0.0%    100.0%      0.0%     
 flops    40 x   128 x   104           2372730880       0.0%    100.0%      0.0%     
 flops    92 x   104 x   104           2563305472       0.0%    100.0%      0.0%     
 flops    78 x   128 x   104           2674753536       0.0%    100.0%      0.0%     
 flops    78 x   104 x   128           2674753536       0.0%    100.0%      0.0%     
 flops    80 x   104 x   128           2743336960       0.0%    100.0%      0.0%     
 flops    80 x   128 x   104           2743336960       0.0%    100.0%      0.0%     
 flops    52 x   128 x   431           3052335104       0.0%    100.0%      0.0%     
 flops    52 x   128 x   432           3059417088       0.0%    100.0%      0.0%     
 flops    53 x   128 x   431           3111033856       0.0%    100.0%      0.0%     
 flops    53 x   128 x   432           3118252032       0.0%    100.0%      0.0%     
 flops    52 x   128 x   444           3144400896       0.0%    100.0%      0.0%     
 flops    53 x   128 x   444           3204870144       0.0%    100.0%      0.0%     
 flops    52 x    96 x   104           3343441920       0.0%    100.0%      0.0%     
 flops    52 x   104 x    96           3343441920       0.0%    100.0%      0.0%     
 flops    53 x    96 x   104           3407738880       0.0%    100.0%      0.0%     
 flops    53 x   104 x    96           3407738880       0.0%    100.0%      0.0%     
 flops    13 x    14 x   104           3434977728       0.0%    100.0%      0.0%     
 flops    14 x    13 x   104           3469956672       0.0%    100.0%      0.0%     
 flops    14 x    26 x   104           3566489472       0.0%    100.0%      0.0%     
 flops    26 x    14 x   104           3586477440       0.0%    100.0%      0.0%     
 flops   130 x   104 x   104           3622062080       0.0%    100.0%      0.0%     
 flops    40 x   104 x   431           3707841280       0.0%    100.0%      0.0%     
 flops    40 x   104 x   432           3716444160       0.0%    100.0%      0.0%     
 flops    64 x   128 x   104           3796369408       0.0%    100.0%      0.0%     
 flops    64 x   104 x   128           3796369408       0.0%    100.0%      0.0%     
 flops    65 x   128 x   431           3815418880       0.0%    100.0%      0.0%     
 flops    40 x   104 x   444           3819678720       0.0%    100.0%      0.0%     
 flops    65 x   128 x   432           3824271360       0.0%    100.0%      0.0%     
 flops    66 x   128 x   431           3874117632       0.0%    100.0%      0.0%     
 flops    66 x   128 x   432           3883106304       0.0%    100.0%      0.0%     
 flops    65 x   128 x   444           3930501120       0.0%    100.0%      0.0%     
 flops    66 x   128 x   444           3990970368       0.0%    100.0%      0.0%     
 flops    65 x    96 x   104           4179302400       0.0%    100.0%      0.0%     
 flops    65 x   104 x    96           4179302400       0.0%    100.0%      0.0%     
 flops    66 x    96 x   104           4243599360       0.0%    100.0%      0.0%     
 flops    66 x   104 x    96           4243599360       0.0%    100.0%      0.0%     
 flops    14 x    14 x    96           4343673600       0.0%    100.0%      0.0%     
 flops   104 x   104 x   104           4346474496       0.0%    100.0%      0.0%     
 flops    92 x   104 x   431           4387731712       0.0%    100.0%      0.0%     
 flops    52 x   128 x   128           4389339136       0.0%    100.0%      0.0%     
 flops    92 x   104 x   432           4397912064       0.0%    100.0%      0.0%     
 flops    40 x    96 x   104           4448870400       0.0%    100.0%      0.0%     
 flops    40 x   104 x    96           4448870400       0.0%    100.0%      0.0%     
 flops    53 x   128 x   128           4473749504       0.0%    100.0%      0.0%     
 flops    92 x   104 x   444           4520076288       0.0%    100.0%      0.0%     
 flops    78 x   128 x   431           4578502656       0.0%    100.0%      0.0%     
 flops    78 x   128 x   432           4589125632       0.0%    100.0%      0.0%     
 flops    80 x   128 x   431           4695900160       0.0%    100.0%      0.0%     
 flops    80 x   128 x   432           4706795520       0.0%    100.0%      0.0%     
 flops    78 x   128 x   444           4716601344       0.0%    100.0%      0.0%     
 flops    80 x   128 x   444           4837539840       0.0%    100.0%      0.0%     
 flops    78 x    96 x   104           5015162880       0.0%    100.0%      0.0%     
 flops    78 x   104 x    96           5015162880       0.0%    100.0%      0.0%     
 flops    80 x    96 x   104           5143756800       0.0%    100.0%      0.0%     
 flops    80 x   104 x    96           5143756800       0.0%    100.0%      0.0%     
 flops    65 x   128 x   128           5486673920       0.0%    100.0%      0.0%     
 flops    66 x   128 x   128           5571084288       0.0%    100.0%      0.0%     
 flops    52 x    96 x   431           5723128320       0.0%    100.0%      0.0%     
 flops    52 x    96 x   432           5736407040       0.0%    100.0%      0.0%     
 flops    53 x    96 x   431           5833188480       0.0%    100.0%      0.0%     
 flops    40 x   128 x   128           5840568320       0.0%    100.0%      0.0%     
 flops    53 x    96 x   432           5846722560       0.0%    100.0%      0.0%     
 flops    52 x    96 x   444           5895751680       0.0%    100.0%      0.0%     
 flops    64 x   104 x   431           5932546048       0.0%    100.0%      0.0%     
 flops    64 x   104 x   432           5946310656       0.0%    100.0%      0.0%     
 flops    53 x    96 x   444           6009131520       0.0%    100.0%      0.0%     
 flops    64 x   104 x   444           6111485952       0.0%    100.0%      0.0%     
 flops   130 x   104 x   431           6200055680       0.0%    100.0%      0.0%     
 flops   130 x   104 x   432           6214440960       0.0%    100.0%      0.0%     
 flops    92 x   104 x   128           6309675008       0.0%    100.0%      0.0%     
 flops    92 x   128 x   104           6309675008       0.0%    100.0%      0.0%     
 flops   130 x   104 x   444           6387064320       0.0%    100.0%      0.0%     
 flops    26 x    32 x    32           6504136704       0.0%    100.0%      0.0%     
 flops    13 x     8 x    13           6548141600       0.0%    100.0%      0.0%     
 flops   118 x   104 x   104           6575435776       0.0%    100.0%      0.0%     
 flops    78 x   128 x   128           6584008704       0.0%    100.0%      0.0%     
 flops    80 x   128 x   128           6752829440       0.0%    100.0%      0.0%     
 flops    64 x    96 x   104           7118192640       0.0%    100.0%      0.0%     
 flops    64 x   104 x    96           7118192640       0.0%    100.0%      0.0%     
 flops    65 x    96 x   431           7153910400       0.0%    100.0%      0.0%     
 flops    65 x    96 x   432           7170508800       0.0%    100.0%      0.0%     
 flops    66 x    96 x   431           7263970560       0.0%    100.0%      0.0%     
 flops    66 x    96 x   432           7280824320       0.0%    100.0%      0.0%     
 flops    65 x    96 x   444           7369689600       0.0%    100.0%      0.0%     
 flops   104 x   104 x   431           7440066816       0.0%    100.0%      0.0%     
 flops   104 x   104 x   432           7457329152       0.0%    100.0%      0.0%     
 flops    66 x    96 x   444           7483069440       0.0%    100.0%      0.0%     
 flops    13 x    32 x    32           7513399296       0.0%    100.0%      0.0%     
 flops   104 x   104 x   444           7664477184       0.0%    100.0%      0.0%     
 flops    26 x     8 x    13           7932724800       0.0%    100.0%      0.0%     
 flops    13 x     8 x    26           7932724800       0.0%    100.0%      0.0%     
 flops    52 x    96 x   128           8230010880       0.0%    100.0%      0.0%     
 flops    52 x   128 x    96           8230010880       0.0%    100.0%      0.0%     
 flops    26 x     8 x    26           8316422400       0.0%    100.0%      0.0%     
 flops    53 x    96 x   128           8388280320       0.0%    100.0%      0.0%     
 flops    53 x   128 x    96           8388280320       0.0%    100.0%      0.0%     
 flops    13 x    14 x   128           8455329792       0.0%    100.0%      0.0%     
 flops    14 x    13 x   128           8541431808       0.0%    100.0%      0.0%     
 flops    78 x    96 x   431           8584692480       0.0%    100.0%      0.0%     
 flops    78 x    96 x   432           8604610560       0.0%    100.0%      0.0%     
 flops    14 x    26 x   128           8779051008       0.0%    100.0%      0.0%     
 flops    80 x    96 x   431           8804812800       0.0%    100.0%      0.0%     
 flops    80 x    96 x   432           8825241600       0.0%    100.0%      0.0%     
 flops    26 x    14 x   128           8828252160       0.0%    100.0%      0.0%     
 flops    78 x    96 x   444           8843627520       0.0%    100.0%      0.0%     
 flops   130 x   104 x   128           8915845120       0.0%    100.0%      0.0%     
 flops   130 x   128 x   104           8915845120       0.0%    100.0%      0.0%     
 flops    80 x    96 x   444           9070387200       0.0%    100.0%      0.0%     
 flops    40 x   128 x   431           9126993920       0.0%    100.0%      0.0%     
 flops    40 x   128 x   432           9148170240       0.0%    100.0%      0.0%     
 flops    64 x   128 x   128           9344909312       0.0%    100.0%      0.0%     
 flops    40 x   128 x   444           9402286080       0.0%    100.0%      0.0%     
 flops    65 x    96 x   128          10287513600       0.0%    100.0%      0.0%     
 flops    65 x   128 x    96          10287513600       0.0%    100.0%      0.0%     
 flops    66 x   128 x    96          10445783040       0.0%    100.0%      0.0%     
 flops    66 x    96 x   128          10445783040       0.0%    100.0%      0.0%     
 flops   104 x   104 x   128          10699014144       0.0%    100.0%      0.0%     
 flops   104 x   128 x   104          10699014144       0.0%    100.0%      0.0%     
 flops    92 x   128 x   431          10800570368       0.0%    100.0%      0.0%     
 flops    92 x   128 x   432          10825629696       0.0%    100.0%      0.0%     
 flops    40 x    96 x   128          10951065600       0.0%    100.0%      0.0%     
 flops    40 x   128 x    96          10951065600       0.0%    100.0%      0.0%     
 flops    92 x   128 x   444          11126341632       0.0%    100.0%      0.0%     
 flops   118 x   104 x   431          11255485696       0.0%    100.0%      0.0%     
 flops   118 x   104 x   432          11281600512       0.0%    100.0%      0.0%     
 flops   118 x   104 x   444          11594978304       0.0%    100.0%      0.0%     
 flops    92 x    96 x   104          11830640640       0.0%    100.0%      0.0%     
 flops    92 x   104 x    96          11830640640       0.0%    100.0%      0.0%     
 flops    78 x   128 x    96          12345016320       0.0%    100.0%      0.0%     
 flops    78 x    96 x   128          12345016320       0.0%    100.0%      0.0%     
 flops    80 x    96 x   128          12661555200       0.0%    100.0%      0.0%     
 flops    80 x   128 x    96          12661555200       0.0%    100.0%      0.0%     
 flops    64 x   128 x   431          14603190272       0.0%    100.0%      0.0%     
 flops    64 x   128 x   432          14637072384       0.0%    100.0%      0.0%     
 flops    64 x   128 x   444          15043657728       0.0%    100.0%      0.0%     
 flops   130 x   128 x   431          15261675520       0.0%    100.0%      0.0%     
 flops   130 x   128 x   432          15297085440       0.0%    100.0%      0.0%     
 flops    52 x    96 x    96          15431270400       0.0%    100.0%      0.0%     
 flops    92 x   128 x   128          15531507712       0.0%    100.0%      0.0%     
 flops   130 x   128 x   444          15722004480       0.0%    100.0%      0.0%     
 flops    53 x    96 x    96          15728025600       0.0%    100.0%      0.0%     
 flops    13 x    14 x    96          15853743360       0.0%    100.0%      0.0%     
 flops    14 x    13 x    96          16015184640       0.0%    100.0%      0.0%     
 flops   118 x   128 x   104          16185688064       0.0%    100.0%      0.0%     
 flops   118 x   104 x   128          16185688064       0.0%    100.0%      0.0%     
 flops    32 x   104 x   104          16193888256       0.0%    100.0%      0.0%     
 flops    14 x    26 x    96          16460720640       0.0%    100.0%      0.0%     
 flops    26 x    14 x    96          16552972800       0.0%    100.0%      0.0%     
 flops   130 x    96 x   104          16717209600       0.0%    100.0%      0.0%     
 flops   130 x   104 x    96          16717209600       0.0%    100.0%      0.0%     
 flops    40 x    96 x   431          17113113600       0.0%    100.0%      0.0%     
 flops    40 x    96 x   432          17152819200       0.0%    100.0%      0.0%     
 flops    64 x   128 x    96          17521704960       0.0%    100.0%      0.0%     
 flops    64 x    96 x   128          17521704960       0.0%    100.0%      0.0%     
 flops    40 x    96 x   444          17629286400       0.0%    100.0%      0.0%     
 flops   104 x   128 x   431          18314010624       0.0%    100.0%      0.0%     
 flops   104 x   128 x   432          18356502528       0.0%    100.0%      0.0%     
 flops   104 x   128 x   444          18866405376       0.0%    100.0%      0.0%     
 flops    65 x    96 x    96          19289088000       0.0%    100.0%      0.0%     
 flops    66 x    96 x    96          19585843200       0.0%    100.0%      0.0%     
 flops   104 x    96 x   104          20060651520       0.0%    100.0%      0.0%     
 flops   104 x   104 x    96          20060651520       0.0%    100.0%      0.0%     
 flops    92 x    96 x   431          20251069440       0.0%    100.0%      0.0%     
 flops    92 x    96 x   432          20298055680       0.0%    100.0%      0.0%     
 flops    40 x    96 x    96          20533248000       0.0%    100.0%      0.0%     
 flops    92 x    96 x   444          20861890560       0.0%    100.0%      0.0%     
 flops    13 x    13 x   104          21694935600       0.0%    100.0%      0.0%     
 flops   130 x   128 x   128          21946695680       0.0%    100.0%      0.0%     
 flops    78 x    96 x    96          23146905600       0.0%    100.0%      0.0%     
 flops    80 x    96 x    96          23740416000       0.0%    100.0%      0.0%     
 flops    13 x    26 x   104          25523304768       0.0%    100.0%      0.0%     
 flops    26 x    13 x   104          25616106048       0.0%    100.0%      0.0%     
 flops   104 x   128 x   128          26336034816       0.0%    100.0%      0.0%     
 flops    26 x    26 x   104          27207226176       0.0%    100.0%      0.0%     
 flops    64 x    96 x   431          27380981760       0.0%    100.0%      0.0%     
 flops    64 x    96 x   432          27444510720       0.0%    100.0%      0.0%     
 flops   118 x   128 x   431          27705810944       0.0%    100.0%      0.0%     
 flops   118 x   128 x   432          27770093568       0.0%    100.0%      0.0%     
 flops    64 x    96 x   444          28206858240       0.0%    100.0%      0.0%     
 flops   118 x   128 x   444          28541485056       0.0%    100.0%      0.0%     
 flops   130 x    96 x   431          28615641600       0.0%    100.0%      0.0%     
 flops   130 x    96 x   432          28682035200       0.0%    100.0%      0.0%     
 flops    14 x    32 x    14          29059430400       0.0%    100.0%      0.0%     
 flops    92 x    96 x   128          29121576960       0.0%    100.0%      0.0%     
 flops    92 x   128 x    96          29121576960       0.0%    100.0%      0.0%     
 flops   130 x    96 x   444          29478758400       0.0%    100.0%      0.0%     
 flops   118 x    96 x   104          30348165120       0.0%    100.0%      0.0%     
 flops   118 x   104 x    96          30348165120       0.0%    100.0%      0.0%     
 flops    64 x    96 x    96          32853196800       0.0%    100.0%      0.0%     
 flops   104 x    96 x   431          34338769920       0.0%    100.0%      0.0%     
 flops   104 x    96 x   432          34418442240       0.0%    100.0%      0.0%     
 flops   104 x    96 x   444          35374510080       0.0%    100.0%      0.0%     
 flops   118 x   128 x   128          39841693696       0.0%    100.0%      0.0%     
 flops    32 x   128 x   104          39861878784       0.0%    100.0%      0.0%     
 flops    32 x   104 x   128          39861878784       0.0%    100.0%      0.0%     
 flops   130 x    96 x   128          41150054400       0.0%    100.0%      0.0%     
 flops   130 x   128 x    96          41150054400       0.0%    100.0%      0.0%     
 flops   104 x    96 x   128          49380065280       0.0%    100.0%      0.0%     
 flops   104 x   128 x    96          49380065280       0.0%    100.0%      0.0%     
 flops   118 x    96 x   431          51948395520       0.0%    100.0%      0.0%     
 flops   118 x    96 x   432          52068925440       0.0%    100.0%      0.0%     
 flops    13 x    13 x   128          53402918400       0.0%    100.0%      0.0%     
 flops   118 x    96 x   444          53515284480       0.0%    100.0%      0.0%     
 flops    92 x    96 x    96          54602956800       0.0%    100.0%      0.0%     
 flops    32 x   104 x   431          62291733504       0.0%    100.0%      0.0%     
 flops    32 x   104 x   432          62436261888       0.0%    100.0%      0.0%     
 flops    13 x    26 x   128          62826596352       0.0%    100.0%      0.0%     
 flops    26 x    13 x   128          63055030272       0.0%    100.0%      0.0%     
 flops    32 x   104 x   444          64170602496       0.0%    100.0%      0.0%     
 flops    26 x    26 x   128          66971633664       0.0%    100.0%      0.0%     
 flops   118 x   128 x    96          74703175680       0.0%    100.0%      0.0%     
 flops   118 x    96 x   128          74703175680       0.0%    100.0%      0.0%     
 flops    32 x    96 x   104          74741022720       0.0%    100.0%      0.0%     
 flops    32 x   104 x    96          74741022720       0.0%    100.0%      0.0%     
 flops   130 x    96 x    96          77156352000       0.0%    100.0%      0.0%     
 flops   104 x    96 x    96          92587622400       0.0%    100.0%      0.0%     
 flops    32 x   128 x   128          98121547776       0.0%    100.0%      0.0%     
 flops    13 x    13 x    96         100130472000       0.0%    100.0%      0.0%     
 flops    13 x    32 x    14         110516806400       0.0%    100.0%      0.0%     
 flops    14 x    32 x    13         110516806400       0.0%    100.0%      0.0%     
 flops    26 x    32 x    14         115263948800       0.0%    100.0%      0.0%     
 flops    14 x    32 x    26         115263948800       0.0%    100.0%      0.0%     
 flops    13 x    26 x    96         117799868160       0.0%    100.0%      0.0%     
 flops    26 x    13 x    96         118228181760       0.0%    100.0%      0.0%     
 flops    26 x    26 x    96         125571813120       0.0%    100.0%      0.0%     
 flops   118 x    96 x    96         140068454400       0.0%    100.0%      0.0%     
 flops    32 x   128 x   431         153333497856       0.0%    100.0%      0.0%     
 flops    32 x   128 x   432         153689260032       0.0%    100.0%      0.0%     
 flops    32 x   128 x   444         157958406144       0.0%    100.0%      0.0%     
 flops    32 x   128 x    96         183977902080       0.0%    100.0%      0.0%     
 flops    32 x    96 x   128         183977902080       0.0%    100.0%      0.0%     
 flops    32 x    96 x   431         287500308480       0.0%    100.0%      0.0%     
 flops    32 x    96 x   432         288167362560       0.0%    100.0%      0.0%     
 flops    32 x    96 x   444         296172011520       0.0%    100.0%      0.0%     
 flops    32 x    96 x    96         344958566400       0.0%    100.0%      0.0%     
 flops    13 x    32 x    13         681006726400       0.0%    100.0%      0.0%     
 flops    26 x    32 x    13         825003379200       0.0%    100.0%      0.0%     
 flops    13 x    32 x    26         825003379200       0.0%    100.0%      0.0%     
 flops    26 x    32 x    26         864907929600       0.0%    100.0%      0.0%     
 flops inhomo. stacks               5916582903840     100.0%      0.0%      0.0%
 flops total                        15.982014E+12      37.0%     63.0%      0.0%
 flops max/rank                    670.903861E+09      39.1%     60.9%      0.0%
 matmuls inhomo. stacks                   1079004     100.0%      0.0%      0.0%
 matmuls total                          217028760       0.5%     99.5%      0.0%
 number of processed stacks              10294407      10.5%     89.5%      0.0%
 average stack size                                     1.0      23.4       0.0
 marketing flops                    18.304920E+12
 -------------------------------------------------------------------------------
 # multiplications                           2830
 max memory usage/rank             905.711616E+06
 # max total images/rank                        2
 # max 3D layers                                1
 # MPI messages exchanged                 1177280
 MPI messages size (bytes):
  total size                       578.928247E+09
  min size                           0.000000E+00
  max size                           3.157720E+06
  average size                     491.750688E+03
 MPI breakdown and total messages size (bytes):
             size <=      128                1752                        0
       128 < size <=     8192                   0                        0
      8192 < size <=    32768                  72                  1921536
     32768 < size <=   131072              338112              29821478400
    131072 < size <=  4194304              837344             549116357552
   4194304 < size <= 16777216                   0                        0
  16777216 < size                               0                        0
 -------------------------------------------------------------------------------

 *** WARNING in dbcsr_mm.F:301 :: Using a non-square number of MPI ranks ***
 *** might lead to poor performance. Used ranks: 32 Suggested: 36 64     ***

 -------------------------------------------------------------------------------
 -                                                                             -
 -                      DBCSR MESSAGE PASSING PERFORMANCE                      -
 -                                                                             -
 -------------------------------------------------------------------------------
 ROUTINE             CALLS      AVE VOLUME [Bytes]
 MP_Bcast              304                     12.
 MP_Allreduce        15898                     31.
 MP_Alltoall          9295                  58856.
 MP_ISend            88208                 225294.
 MP_IRecv            88208                 221129.
 -------------------------------------------------------------------------------

 -------------------------------------------------------------------------------
 -                                                                             -
 -                                DBM STATISTICS                               -
 -                                                                             -
 -------------------------------------------------------------------------------
    M  x    N  x    K                                          COUNT     PERCENT
 -------------------------------------------------------------------------------

 -------------------------------------------------------------------------------
 -                                                                             -
 -                                GRID STATISTICS                              -
 -                                                                             -
 -------------------------------------------------------------------------------
 LP    KERNEL             BACKEND                              COUNT     PERCENT
 5     collocate general  CPU                               16603464      24.36%
 5     integrate general  CPU                               16476720      24.17%
 4     collocate general  CPU                               10246427      15.03%
 4     integrate general  CPU                               10168210      14.92%
 6     collocate general  CPU                                7225960      10.60%
 6     integrate general  CPU                                7170800      10.52%
 8     integrate general  CPU                                 126744       0.19%
 7     integrate general  CPU                                  78217       0.11%
 9     integrate general  CPU                                  55160       0.08%
 0     collocate general  CPU                                   6720       0.01%
 3     integrate general  CPU                                   6720       0.01%
 -------------------------------------------------------------------------------

 MEMORY| Estimated peak process memory [MiB]                                 864

 -------------------------------------------------------------------------------
 -                                                                             -
 -                         MESSAGE PASSING PERFORMANCE                         -
 -                                                                             -
 -------------------------------------------------------------------------------

 ROUTINE             CALLS      AVE VOLUME [Bytes]
 MP_Group                5
 MP_Bcast            10011                 109678.
 MP_Allreduce        26290                   1097.
 MP_Sync               125
 MP_Alltoall          3426               16078385.
 MP_SendRecv         12183                  90880.
 MP_ISendRecv        12183                  90880.
 MP_Wait             35061
 MP_ISend            20512                 335338.
 MP_IRecv            20512                 335338.
 -------------------------------------------------------------------------------


 -------------------------------------------------------------------------------
 -                                                                             -
 -                           R E F E R E N C E S                               -
 -                                                                             -
 -------------------------------------------------------------------------------
 
 CP2K version 2024.3, the CP2K developers group (2024).
 CP2K is freely available from https://www.cp2k.org/ .
 
 T. D. Kuehne, M. Iannuzzi, M. Del Ben, V. V. Rybkin, P. Seewald, F. Stein, T. 
 Laino, R. Z. Khaliullin, O. Schuett, F. Schiffmann, D. Golze, J. Wilhelm, S. 
 Chulkov, M. H. Bani-Hashemian, V. Weber, U. Borstnik, M. Taillefumier, A. S. 
 Jakobovits, A. Lazzaro, H. Pabst, T. Mueller, R. Schade, M. Guidon, S. 
 Andermatt, N. Holmberg, G. K. Schenter, A. Hehn, A. Bussy, F. Belleflamme, G. 
 Tabacchi, A. Gloess, M. Lass, I. Bethune, C. J. Mundy, C. Plessl, M. Watkins, 
 J. VandeVondele, M. Krack, J. Hutter.
 J. Chem. Phys. 152, 194103 (2020).
 CP2K: An electronic structure and molecular dynamics software package - 
 Quickstep: Efficient and accurate electronic structure calculations.
 https://doi.org/10.1063/5.0007045

 O. Schuett, P. Messmer, J. Hutter, J. VandeVondele.
 Electronic Structure Calculations on Graphics Processing Units, 173-190 (2016).
 GPU-Accelerated Sparse Matrix-Matrix Multiplication for Linear Scaling Density 
 Functional Theory.
 https://doi.org/10.1002/9781118670712.ch8

 A. Heinecke, G. Henry, M. Hutchinson, H. Pabst.
 Proceedings of Intl. Supercomputing Conference, 981-991 (2016).
 LIBXSMM: Accelerating Small Matrix Multiplications by Runtime Code Generation.
 https://doi.org/10.1109/SC.2016.83

 J. Hutter, M. Iannuzzi, F. Schiffmann, J. VandeVondele.
 WIREs Comput Mol Sci. 4, 15-25 (2014).
 CP2K: atomistic simulations of condensed matter systems.
 https://doi.org/10.1002/wcms.1159

 U. Borstnik, J. VandeVondele, V. Weber, J. Hutter.
 Parallel Comput. 40, 47-58 (2014).
 Sparse matrix multiplication: The distributed block-compressed sparse row 
 library.
 https://doi.org/10.1016/j.parco.2014.03.012

 A. Marek, V. Blum, R. Johanni, V. Havu, B. Lang, T. Auckenthaler, A. Heinecke, 
 H. Bungartz, H. Lederer.
 J. Phys. Condens. Matter 26, 213201 (2014).
 The ELPA library: scalable parallel eigenvalue solutions for electronic 
 structure theory and computational science.
 https://doi.org/10.1088/0953-8984/26/21/213201

 J. P. Perdew, A. Ruzsinszky, G. I. Csonka, O. A. Vydrov, G. E. Scuseria, L. A. 
 Constantin, X. Zhou, K. Burke.
 Phys. Rev. Lett. 100, 136406-136409 (2008).
 Restoring the Density-Gradient Expansion for Exchange in Solids and Surfaces.
 https://doi.org/10.1103/PhysRevLett.100.136406

 J. VandeVondele, J. Hutter.
 J. Chem. Phys. 127, 114105 (2007).
 Gaussian basis sets for accurate calculations on molecular systems in gas and 
 condensed phases.
 https://doi.org/10.1063/1.2770708

 J. VandeVondele, M. Krack, F. Mohamed, M. Parrinello, T. Chassaing, J. Hutter.
 Comput. Phys. Commun. 167, 103-128 (2005).
 QUICKSTEP: Fast and accurate density functional calculations using a mixed 
 Gaussian and plane waves approach.
 https://doi.org/10.1016/j.cpc.2004.12.014

 M. Krack.
 Theor. Chem. Acc. 114, 145-152 (2005).
 Pseudopotentials for H to Kr optimized for gradient-corrected 
 exchange-correlation functionals.
 https://doi.org/10.1007/s00214-005-0655-y

 M. Frigo, S. G. Johnson.
 Proc. IEEE 93, 216-231 (2005).
 The design and implementation of FFTW3.
 https://doi.org/10.1109/JPROC.2004.840301

 J. VandeVondele, J. Hutter.
 J. Chem. Phys. 118, 4365-4369 (2003).
 An efficient orbital transformation method for electronic structure 
 calculations.
 https://doi.org/10.1063/1.1543154

 C. Hartwigsen, S. Goedecker, J. Hutter.
 Phys. Rev. B 58, 3641-3662 (1998).
 Relativistic separable dual-space Gaussian pseudopotentials from H to Rn.
 https://doi.org/10.1103/PhysRevB.58.3641

 G. Lippert, J. Hutter, M. Parrinello.
 Mol. Phys. 92, 477-487 (1997).
 A hybrid Gaussian and plane wave density functional scheme.
 https://doi.org/10.1080/002689797170220

 S. Goedecker, M. Teter, J. Hutter.
 Phys. Rev. B 54, 1703-1710 (1996).
 Separable dual-space Gaussian pseudopotentials.
 https://doi.org/10.1103/PhysRevB.54.1703

 J. P. Perdew, K. Burke, M. Ernzerhof.
 Phys. Rev. Lett. 77, 3865-3868 (1996).
 Generalized gradient approximation made simple.
 https://doi.org/10.1103/PhysRevLett.77.3865


 -------------------------------------------------------------------------------
 -                                                                             -
 -                                T I M I N G                                  -
 -                                                                             -
 -------------------------------------------------------------------------------
 SUBROUTINE                       CALLS  ASD         SELF TIME        TOTAL TIME
                                MAXIMUM       AVERAGE  MAXIMUM  AVERAGE  MAXIMUM
 CP2K                                 1  1.0    1.067    1.089  134.817  134.818
 qs_forces                            1  2.0    0.001    0.001  132.738  132.739
 qs_energies                          1  3.0    0.001    0.001  127.901  127.902
 scf_env_do_scf                       1  4.0    0.000    0.001  125.927  125.928
 scf_env_do_scf_inner_loop          130  5.0    0.004    0.014  122.719  122.723
 rebuild_ks_matrix                  131  7.0    0.001    0.001   62.236   62.442
 qs_ks_build_kohn_sham_matrix       131  8.0    0.022    0.024   62.235   62.441
 qs_ks_update_qs_env                133  6.0    0.002    0.002   60.959   61.157
 qs_rho_update_rho_low              131  6.0    0.001    0.001   36.432   36.446
 calculate_rho_elec                 131  7.0    0.392    0.420   36.431   36.445
 sum_up_and_integrate               131  9.0    0.002    0.003   34.142   34.164
 integrate_v_rspace                 131 10.0    0.005    0.005   34.081   34.101
 grid_collocate_task_list           131  8.0   27.166   28.132   27.166   28.132
 qs_scf_new_mos                     130  6.0    0.001    0.001   27.118   27.253
 qs_scf_loop_do_ot                  130  7.0    0.001    0.001   27.117   27.252
 grid_integrate_task_list           131 11.0   26.060   27.215   26.060   27.215
 ot_scf_mini                        130  8.0    0.004    0.005   25.939   26.100
 fft_wrap_pw1pw2                   2621 11.1    0.047    0.052   23.756   24.369
 fft_wrap_pw1pw2_300               1573 12.6    1.979    2.163   22.546   23.132
 qs_vxc_create                      131  9.0    0.003    0.003   19.705   19.715
 xc_vxc_pw_create                   131 10.0    0.500    0.553   19.703   19.713
 dbcsr_multiply_generic            2830 11.1    0.126    0.134   19.186   19.547
 fft3d_ps                          2621 13.1    8.379    8.787   17.065   17.872
 xc_pw_derive                       786 12.0    0.005    0.006   12.974   13.763
 multiply_cannon                   2830 12.1    0.242    0.269   10.977   12.813
 ot_mini                            130  9.0    0.001    0.002   12.114   12.290
 multiply_cannon_loop              2830 13.1    0.161    0.195    9.332   10.992
 qs_ot_get_p                        133  9.0    0.001    0.001   10.843   10.906
 xc_rho_set_and_dset_create         131 11.0    0.362    0.400   10.279   10.581
 density_rs2pw                      131  8.0    0.006    0.008    8.538    9.663
 xc_pw_divergence                   131 11.0    0.003    0.003    8.748    9.466
 qs_ot_get_derivative               130 10.0    0.001    0.001    8.854    9.005
 qs_ot_p2m_diag                     120 10.0    0.219    0.284    8.888    8.992
 multiply_cannon_multrec          22640 14.1    6.697    8.756    6.710    8.769
 mp_alltoall_z22v                  2621 15.1    6.504    8.208    6.504    8.208
 cp_dbcsr_syevd                     120 11.0    0.009    0.010    7.825    7.884
 cp_fm_diag_elpa                    120 12.0    0.001    0.001    7.560    7.574
 cp_fm_diag_elpa_base               120 13.0    7.501    7.506    7.545    7.546
 potential_pw2rs                    131 11.0    0.027    0.030    6.669    6.684
 qs_ot_get_derivative_diag          118 11.0    0.003    0.003    6.010    6.162
 transfer_rs2pw                     656  9.0    0.009    0.014    4.349    5.404
 yz_to_x                            918 14.1    0.801    0.921    3.935    5.041
 make_m2s                          5660 12.1    0.083    0.085    4.703    5.037
 mp_waitany                       20512 12.5    3.853    5.004    3.853    5.004
 x_to_yz                           1179 14.4    1.261    1.427    4.614    4.896
 mp_waitall_1                    195669 15.2    2.871    4.501    2.871    4.501
 transfer_pw2rs                     656 12.0    0.005    0.006    4.063    4.069
 transfer_rs2pw_300                 132 10.0    0.716    0.819    2.910    3.989
 xc_functional_eval                 131 12.0    0.002    0.003    3.348    3.587
 pbe_lda_eval                       131 13.0    3.346    3.585    3.346    3.585
 build_core_hamiltonian_matrix_       1  3.0    0.000    0.000    2.589    3.474
 calc_dipsurf_potential             131  9.0    0.467    0.507    3.285    3.358
 make_images                       5660 13.1    0.378    0.472    3.107    3.300
 init_scf_loop                        3  5.0    0.000    0.000    3.204    3.208
 ot_diis_step                       130 10.0    0.007    0.008    3.188    3.188
 build_core_ppnl_forces               1  4.0    2.109    3.015    2.109    3.015
 mp_sum_d                          7570 11.6    1.769    2.866    1.769    2.866
 mp_alltoall_d11v                  1940 13.4    1.634    2.750    1.634    2.750
 mp_sum_l                         14022 11.9    1.903    2.710    1.903    2.710
 -------------------------------------------------------------------------------

 The number of warnings for this run is : 1
 
 -------------------------------------------------------------------------------
  **** **** ******  **  PROGRAM ENDED AT                 2026-08-31 15:54:02.253
 ***** ** ***  *** **   PROGRAM RAN ON                                 nid004573
 **    ****   ******    PROGRAM RAN BY                                    agne_r
 ***** **    ** ** **   PROGRAM PROCESS ID                                102164
  **** **  *******  **  PROGRAM STOPPED IN /mnt/lustre/a2fs-work3/work/e89/e89/a
                                           gne_r/Crystalline_HfO2_Interfaces/Cla
                                           ude/HfO2_STO_interfaces/V4_lattice_ma
                                           tches/updated/V4_lattice_matches/STO_
                                           HfO2_m111_pbesol_matches/configs/m01_
                                           A0091_eps6p5
