Sr18 Hf40 Ti18 O134
1.0
   7.8029613944666663    0.0000000000000000    0.0000000000000005
   3.9014806972333318   11.7044420917000007    0.0000000000000008
   0.0000000000000000    0.0000000000000000   46.9104457696443617
Sr Hf Ti O
18 40 18 134
direct
  -0.0000000000000001    0.0000000000000000    0.2166513823212301 Sr
   0.4999999999999998    0.0000000000000000    0.2166513823212301 Sr
   0.3333333333333334    0.3333333333333334    0.2166513823212301 Sr
   0.1666666666666667    0.6666666666666665    0.2166513823212301 Sr
   0.8333333333333334    0.3333333333333333    0.2166513823212301 Sr
   0.6666666666666669    0.6666666666666666    0.2166513823212301 Sr
  -0.0000000000000001    0.0000000000000001    0.2998200803206418 Sr
   0.4999999999999998    0.0000000000000001    0.2998200803206418 Sr
   0.3333333333333333    0.3333333333333334    0.2998200803206418 Sr
   0.1666666666666666    0.6666666666666666    0.2998200803206418 Sr
   0.8333333333333334    0.3333333333333333    0.2998200803206418 Sr
   0.6666666666666669    0.6666666666666667    0.2998200803206418 Sr
  -0.0000000000000002    0.0000000000000001    0.3829887783200535 Sr
   0.4999999999999999    0.0000000000000001    0.3829887783200535 Sr
   0.3333333333333333    0.3333333333333334    0.3829887783200535 Sr
   0.1666666666666667    0.6666666666666665    0.3829887783200535 Sr
   0.8333333333333331    0.3333333333333334    0.3829887783200535 Sr
   0.6666666666666669    0.6666666666666667    0.3829887783200535 Sr
   0.2291035627380446    1.0552239081585986    0.7624496878178388 Hf
   0.7291035627380447    1.5552239081585988    0.7624496878178388 Hf
   0.8944955488689674    1.2874300135676024    0.7658835824597507 Hf
   0.3944955488689675    0.7874300135676023    0.7658835824597507 Hf
   0.9336359028469733    0.8011417733247220    0.7714214957243448 Hf
   0.4336359028469731    1.3011417733247219    0.7714214957243448 Hf
   0.1899632087600389    1.5415121484014791    0.7569117745532445 Hf
   0.6899632087600389    1.0415121484014787    0.7569117745532448 Hf
   0.2600033406397976    1.3908873885901492    0.6960773616032669 Hf
   0.7600033406397977    1.8908873885901489    0.6960773616032669 Hf
   0.9253953267707206    1.6230934939991530    0.6995112562451786 Hf
   0.4253953267707206    1.1230934939991528    0.6995112562451786 Hf
   0.9645356807487262    1.1368052537562723    0.7050491695097729 Hf
   0.4645356807487262    1.6368052537562721    0.7050491695097729 Hf
   0.2208629866617919    1.8771756288330295    0.6905394483386726 Hf
   0.7208629866617919    1.3771756288330297    0.6905394483386726 Hf
   0.2909031185415506    1.7265508690216993    0.6297050353886950 Hf
   0.7909031185415507    2.2265508690217000    0.6297050353886950 Hf
   0.9562951046724736    1.9587569744307032    0.6331389300306067 Hf
   0.4562951046724735    1.4587569744307034    0.6331389300306067 Hf
   0.9954354586504793    1.4724687341878229    0.6386768432952010 Hf
   0.4954354586504792    1.9724687341878229    0.6386768432952010 Hf
   0.2517627645635451    2.2128391092645803    0.6241671221241007 Hf
   0.7517627645635452    1.7128391092645801    0.6241671221241007 Hf
   0.3218028964433038    2.0622143494532503    0.5633327091741231 Hf
   0.8218028964433038    2.5622143494532494    0.5633327091741231 Hf
   0.9871948825742266    2.2944204548622538    0.5667666038160348 Hf
   0.4871948825742264    1.7944204548622538    0.5667666038160348 Hf
   1.0263352365522322    1.8081322146193730    0.5723045170806291 Hf
   0.5263352365522322    2.3081322146193730    0.5723045170806291 Hf
   0.2826625424652980    2.5485025896961311    0.5577947959095289 Hf
   0.7826625424652982    2.0485025896961306    0.5577947959095289 Hf
   0.3527026743450568    2.3978778298847998    0.4969603829595513 Hf
   0.8527026743450569    2.8978778298848002    0.4969603829595513 Hf
   1.0180946604759797    2.6300839352938041    0.5003942776014629 Hf
   0.5180946604759796    2.1300839352938046    0.5003942776014629 Hf
   1.0572350144539853    2.1437956950509234    0.5059321908660572 Hf
   0.5572350144539852    2.6437956950509238    0.5059321908660572 Hf
   0.3135623203670510    2.8841660701276801    0.4914224696949570 Hf
   0.8135623203670510    2.3841660701276810    0.4914224696949569 Hf
   0.1666666666666666    0.1666666666666667    0.2582357313209360 Ti
   0.6666666666666665    0.1666666666666667    0.2582357313209360 Ti
   0.4999999999999999    0.5000000000000000    0.2582357313209360 Ti
   0.3333333333333333    0.8333333333333331    0.2582357313209360 Ti
  -0.0000000000000001    0.4999999999999999    0.2582357313209360 Ti
   0.8333333333333334    0.8333333333333331    0.2582357313209360 Ti
   0.1666666666666665    0.1666666666666667    0.3414044293203476 Ti
   0.6666666666666665    0.1666666666666667    0.3414044293203476 Ti
   0.4999999999999999    0.5000000000000000    0.3414044293203476 Ti
   0.3333333333333333    0.8333333333333331    0.3414044293203476 Ti
   0.0000000000000001    0.4999999999999999    0.3414044293203476 Ti
   0.8333333333333336    0.8333333333333331    0.3414044293203476 Ti
   0.1666666666666665    0.1666666666666667    0.4245731273197594 Ti
   0.6666666666666665    0.1666666666666667    0.4245731273197594 Ti
   0.4999999999999999    0.5000000000000000    0.4245731273197594 Ti
   0.3333333333333332    0.8333333333333334    0.4245731273197594 Ti
   0.0000000000000001    0.5000000000000000    0.4245731273197594 Ti
   0.8333333333333336    0.8333333333333333    0.4245731273197594 Ti
   0.2499999999999999    0.0000000000000000    0.2582357313209360 O
   0.7499999999999999    0.0000000000000000    0.2582357313209360 O
   0.5833333333333334    0.3333333333333333    0.2582357313209360 O
   0.4166666666666666    0.6666666666666666    0.2582357313209360 O
   0.0833333333333332    0.3333333333333333    0.2582357313209360 O
   0.9166666666666666    0.6666666666666667    0.2582357313209360 O
   0.9166666666666666    0.1666666666666667    0.2582357313209360 O
   0.4166666666666666    0.1666666666666667    0.2582357313209360 O
   0.2500000000000001    0.5000000000000000    0.2582357313209360 O
   0.0833333333333333    0.8333333333333331    0.2582357313209360 O
   0.7500000000000000    0.5000000000000000    0.2582357313209360 O
   0.5833333333333336    0.8333333333333331    0.2582357313209360 O
   0.1666666666666665    0.1666666666666667    0.2166513823212301 O
   0.6666666666666666    0.1666666666666667    0.2166513823212301 O
   0.5000000000000000    0.4999999999999999    0.2166513823212301 O
   0.3333333333333334    0.8333333333333331    0.2166513823212301 O
  -0.0000000000000000    0.4999999999999999    0.2166513823212301 O
   0.8333333333333334    0.8333333333333331    0.2166513823212301 O
   0.2499999999999999    0.0000000000000001    0.3414044293203476 O
   0.7499999999999999    0.0000000000000001    0.3414044293203476 O
   0.5833333333333331    0.3333333333333334    0.3414044293203476 O
   0.4166666666666666    0.6666666666666665    0.3414044293203476 O
   0.0833333333333334    0.3333333333333334    0.3414044293203476 O
   0.9166666666666669    0.6666666666666667    0.3414044293203476 O
   0.9166666666666666    0.1666666666666668    0.3414044293203476 O
   0.4166666666666666    0.1666666666666668    0.3414044293203476 O
   0.2500000000000000    0.4999999999999999    0.3414044293203476 O
   0.0833333333333334    0.8333333333333331    0.3414044293203476 O
   0.7500000000000000    0.5000000000000000    0.3414044293203476 O
   0.5833333333333336    0.8333333333333331    0.3414044293203476 O
   0.1666666666666665    0.1666666666666667    0.2998200803206418 O
   0.6666666666666665    0.1666666666666667    0.2998200803206418 O
   0.4999999999999999    0.5000000000000000    0.2998200803206418 O
   0.3333333333333333    0.8333333333333331    0.2998200803206418 O
   0.0000000000000001    0.4999999999999999    0.2998200803206418 O
   0.8333333333333336    0.8333333333333331    0.2998200803206418 O
   0.2499999999999998    0.0000000000000001    0.4245731273197594 O
   0.7499999999999997    0.0000000000000001    0.4245731273197594 O
   0.5833333333333331    0.3333333333333334    0.4245731273197594 O
   0.4166666666666666    0.6666666666666665    0.4245731273197594 O
   0.0833333333333333    0.3333333333333334    0.4245731273197594 O
   0.9166666666666669    0.6666666666666667    0.4245731273197594 O
   0.9166666666666665    0.1666666666666668    0.4245731273197594 O
   0.4166666666666665    0.1666666666666668    0.4245731273197594 O
   0.2499999999999999    0.5000000000000000    0.4245731273197594 O
   0.0833333333333333    0.8333333333333334    0.4245731273197594 O
   0.7499999999999998    0.5000000000000000    0.4245731273197594 O
   0.5833333333333336    0.8333333333333333    0.4245731273197594 O
   0.1666666666666665    0.1666666666666667    0.3829887783200535 O
   0.6666666666666665    0.1666666666666667    0.3829887783200535 O
   0.4999999999999999    0.5000000000000000    0.3829887783200535 O
   0.3333333333333332    0.8333333333333334    0.3829887783200535 O
   0.0000000000000001    0.5000000000000000    0.3829887783200535 O
   0.8333333333333336    0.8333333333333333    0.3829887783200535 O
   0.9744810042643456    1.4457808609636009    0.7592982039074156 O
   0.4744810042643456    0.9457808609636008    0.7592982039074156 O
   0.1491181073426665    0.8968730607626003    0.7690350663701739 O
   0.6491181073426666    1.3968730607626003    0.7690350663701739 O
   0.7994626804441565    0.9495421977947475    0.7903071071418637 O
   0.2994626804441564    1.4495421977947474    0.7903071071418637 O
   0.3241364311628556    1.3931117239314539    0.7380261631357259 O
   0.8241364311628558    0.8931117239314539    0.7380261631357259 O
   0.6839277652369180    1.1903058867275029    0.7823758088092470 O
   0.1839277652369179    0.6903058867275030    0.7823758088092467 O
   0.4396713463700942    1.1523480349986979    0.7459574614683426 O
   0.9396713463700943    1.6523480349986979    0.7459574614683426 O
   0.1664093966814175    1.2317795515203318    0.7780383071631192 O
   0.6664093966814174    0.7317795515203316    0.7780383071631192 O
   0.9571897149255947    1.1108743702058694    0.7502949631144704 O
   0.4571897149255946    1.6108743702058694    0.7502949631144704 O
   1.0053807821660985    1.7814443413951513    0.6929258776928435 O
   0.5053807821660986    1.2814443413951513    0.6929258776928435 O
   0.1800178852444196    1.2325365411941505    0.7026627401556020 O
   0.6800178852444195    1.7325365411941509    0.7026627401556020 O
   0.8303624583459095    1.2852056782262977    0.7239347809272918 O
   0.3303624583459094    1.7852056782262979    0.7239347809272918 O
   0.3550362090646088    1.7287752043630038    0.6716538369211539 O
   0.8550362090646089    1.2287752043630045    0.6716538369211538 O
   0.7148275431386709    1.5259693671590533    0.7160034825946748 O
   0.2148275431386709    1.0259693671590531    0.7160034825946748 O
   0.4705711242718473    1.4880115154302482    0.6795851352537707 O
   0.9705711242718473    1.9880115154302487    0.6795851352537707 O
   0.1973091745831705    1.5674430319518819    0.7116659809485471 O
   0.6973091745831704    1.0674430319518819    0.7116659809485471 O
   0.9880894928273477    1.4465378506374198    0.6839226368998985 O
   0.4880894928273477    1.9465378506374196    0.6839226368998985 O
   1.0362805600678517    2.1171078218267021    0.6265535514782716 O
   0.5362805600678516    1.6171078218267012    0.6265535514782716 O
   0.2109176631461726    1.5682000216257013    0.6362904139410301 O
   0.7109176631461726    2.0682000216257013    0.6362904139410301 O
   0.8612622362476625    1.6208691586578483    0.6575624547127199 O
   0.3612622362476625    2.1208691586578485    0.6575624547127199 O
   0.3859359869663617    2.0644386847945544    0.6052815107065820 O
   0.8859359869663619    1.5644386847945544    0.6052815107065820 O
   0.7457273210404242    1.8616328475906039    0.6496311563801029 O
   0.2457273210404239    1.3616328475906043    0.6496311563801029 O
   0.5014709021736004    1.8236749958617986    0.6132128090391988 O
   1.0014709021736004    2.3236749958617993    0.6132128090391988 O
   0.2282089524849236    1.9031065123834323    0.6452936547339752 O
   0.7282089524849236    1.4031065123834325    0.6452936547339752 O
   1.0189892707291008    1.7822013310689704    0.6175503106853266 O
   0.5189892707291007    2.2822013310689711    0.6175503106853264 O
   1.0671803379696048    2.4527713022582520    0.5601812252636998 O
   0.5671803379696048    1.9527713022582518    0.5601812252636998 O
   0.2418174410479256    1.9038635020572519    0.5699180877264582 O
   0.7418174410479258    2.4038635020572516    0.5699180877264582 O
   0.8921620141494156    1.9565326390893989    0.5911901284981480 O
   0.3921620141494156    2.4565326390893985    0.5911901284981480 O
   0.4168357648681147    2.4001021652261052    0.5389091844920101 O
   0.9168357648681148    1.9001021652261050    0.5389091844920101 O
   0.7766270989421771    2.1972963280221545    0.5832588301655310 O
   0.2766270989421771    1.6972963280221542    0.5832588301655310 O
   0.5323706800753533    2.1593384762933492    0.5468404828246269 O
   1.0323706800753534    2.6593384762933492    0.5468404828246269 O
   0.2591087303866766    2.2387699928149831    0.5789213285194033 O
   0.7591087303866766    1.7387699928149829    0.5789213285194033 O
   1.0498890486308539    2.1178648115005210    0.5511779844707547 O
   0.5498890486308537    2.6178648115005210    0.5511779844707547 O
   1.0980801158713578    2.7884347826898024    0.4938088990491279 O
   0.5980801158713578    2.2884347826898019    0.4938088990491279 O
   0.2727172189496786    2.2395269824888029    0.5035457615118861 O
   0.7727172189496786    2.7395269824888024    0.5035457615118862 O
   0.9230617920511688    2.2921961195209497    0.5248178022835759 O
   0.4230617920511686    2.7921961195209493    0.5248178022835761 O
   0.4477355427698678    2.7357656456576551    0.4725368582774381 O
   0.9477355427698682    2.2357656456576551    0.4725368582774382 O
   0.8075268768439301    2.5329598084537048    0.5168865039509590 O
   0.3075268768439300    2.0329598084537048    0.5168865039509591 O
   0.5632704579771063    2.4950019567248996    0.4804681566100550 O
   1.0632704579771066    2.9950019567249000    0.4804681566100550 O
   0.2900085082884297    2.5744334732465335    0.5125490023048314 O
   0.7900085082884296    2.0744334732465335    0.5125490023048314 O
   1.0807888265326069    2.4535282919320713    0.4848056582561828 O
   0.5807888265326069    2.9535282919320709    0.4848056582561828 O
