 DBCSR| CPU Multiplication driver                                           XSMM (U)
 DBCSR| Multrec recursion limit                                              512 (U)
 DBCSR| Multiplication stack size                                           1000 (D)
 DBCSR| Maximum elements for images                                    UNLIMITED (U)
 DBCSR| Multiplicative factor virtual images                                   1 (U)
 DBCSR| Use multiplication densification                                       T (D)
 DBCSR| Multiplication size stacks                                             3 (U)
 DBCSR| Use memory pool for CPU allocation                                     F (U)
 DBCSR| Number of 3D layers                                               SINGLE (U)
 DBCSR| Use MPI memory allocation                                              F (U)
 DBCSR| Use RMA algorithm                                                      F (U)
 DBCSR| Use Communication thread                                               T (U)
 DBCSR| Communication thread load                                             60 (D)
 DBCSR| MPI: My process id                                                     0
 DBCSR| MPI: Number of processes                                              32
 DBCSR| OMP: Current number of threads                                         8
 DBCSR| OMP: Max number of threads                                             8
 DBCSR| Split modifier for TAS multiplication algorithm                  1.0E+00 (U)


  **** **** ******  **  PROGRAM STARTED AT               2026-08-31 15:51:34.339
 ***** ** ***  *** **   PROGRAM STARTED ON                             nid001507
 **    ****   ******    PROGRAM STARTED BY                                agne_r
 ***** **    ** ** **   PROGRAM PROCESS ID                                107842
  **** **  *******  **  PROGRAM STARTED IN /mnt/lustre/a2fs-work3/work/e89/e89/a
                                           gne_r/Crystalline_HfO2_Interfaces/Cla
                                           ude/HfO2_STO_interfaces/V4_lattice_ma
                                           tches/updated/V4_lattice_matches/STO_
                                           HfO2_m111_pbesol_matches/configs/m00_
                                           A0091_eps8p2

 CP2K| version string:                                       CP2K version 2024.3
 CP2K| source code revision number:                                  git:6712648
 CP2K| cp2kflags: omp libint fftw3 libxc libgrpp elpa parallel scalapack cosma x
 CP2K|            smm plumed2 spglib mkl sirius libvori libbqb libvdwxc hdf5
 CP2K| is freely available from                            https://www.cp2k.org/
 CP2K| Program compiled at                       Thu 12 Sep 2024 10:20:47 AM BST
 CP2K| Program compiled on                                                  ln04
 CP2K| Program compiled for                                                local
 CP2K| Data directory path    /mnt/lustre/a2fs-work1/work/y07/shared/apps/core/c
 CP2K| Input file name                                                  cp2k.inp

 GLOBAL| Force Environment number                                              1
 GLOBAL| Basis set file name                                        BASIS_MOLOPT
 GLOBAL| Potential file name                                      GTH_POTENTIALS
 GLOBAL| MM Potential file name                                     MM_POTENTIAL
 GLOBAL| Coordinate file name                                      interface.cif
 GLOBAL| Method name                                                        CP2K
 GLOBAL| Project name                                           m00_A0091_eps8p2
 GLOBAL| Run type                                                   ENERGY_FORCE
 GLOBAL| FFT library                                                       FFTW3
 GLOBAL| Diagonalization library                                            ELPA
 GLOBAL| DGEMM library                                                      BLAS
 GLOBAL| Minimum number of eigenvectors for ELPA usage                        16
 GLOBAL| Orthonormality check for eigenvectors                          DISABLED
 GLOBAL| Matrix multiplication library                                     COSMA
 GLOBAL| All-to-all communication in single precision                          F
 GLOBAL| FFTs using library dependent lengths                                  T
 GLOBAL| Grid backend                                                       AUTO
 GLOBAL| Global print level                                                  LOW
 GLOBAL| MPI I/O enabled                                                       T
 GLOBAL| Total number of message passing processes                            32
 GLOBAL| Number of threads for this process                                    8
 GLOBAL| This output is from process                                           0
 GLOBAL| Stack size for threads created by OpenMP (OMP_STACKSIZE)        default
 GLOBAL| CPU model name                          AMD EPYC 7742 64-Core Processor
 GLOBAL| CPUID                                                              1002

 MEMORY| system memory details [Kb]
 MEMORY|                        rank 0           min           max       average
 MEMORY| MemTotal            263266896     263266880     263266896     263266888
 MEMORY| MemFree             248521008     248521008     248720144     248620576
 MEMORY| Buffers                201820        127376        201820        164598
 MEMORY| Cached                1208776       1203260       1208776       1206018
 MEMORY| Slab                  3530668       3525180       3530668       3527935
 MEMORY| SReclaimable          1438592       1425732       1438592       1432162
 MEMORY| MemLikelyFree       251370196     251370196     251476512     251423354


 GENERATE|  Preliminary Number of Bonds generated:                             0
 GENERATE|  Achieved consistency in connectivity generation.

 *******************************************************************************
 *******************************************************************************
 **                                                                           **
 **     #####                         ##              ##                      **
 **    ##   ##            ##          ##              ##                      **
 **   ##     ##                       ##            ######                    **
 **   ##     ##  ##   ##  ##   #####  ##  ##   ####   ##    #####    #####    **
 **   ##     ##  ##   ##  ##  ##      ## ##   ##      ##   ##   ##  ##   ##   **
 **   ##  ## ##  ##   ##  ##  ##      ####     ###    ##   ######   ######    **
 **    ##  ###   ##   ##  ##  ##      ## ##      ##   ##   ##       ##        **
 **     #######   #####   ##   #####  ##  ##  ####    ##    #####   ##        **
 **           ##                                                    ##        **
 **                                                                           **
 **                                                ... make the atoms dance   **
 **                                                                           **
 **            Copyright (C) by CP2K developers group (2000-2024)             **
 **                      J. Chem. Phys. 152, 194103 (2020)                    **
 **                                                                           **
 *******************************************************************************


 TOTAL NUMBERS AND MAXIMUM NUMBERS

  Total number of            - Atomic kinds:                                   4
                             - Atoms:                                        210
                             - Shell sets:                                   210
                             - Shells:                                      1242
                             - Primitive Cartesian functions:               1126
                             - Cartesian basis functions:                   3944
                             - Spherical basis functions:                   3502

  Maximum angular momentum of- Orbital basis functions:                        3
                             - Local part of the GTH pseudopotential:          2
                             - Non-local part of the GTH pseudopotential:      4


 SCF PARAMETERS         Density guess:                                    ATOMIC
                        --------------------------------------------------------
                        max_scf:                                              60
                        max_scf_history:                                       0
                        max_diis:                                              4
                        --------------------------------------------------------
                        eps_scf:                                        1.00E-06
                        eps_scf_history:                                0.00E+00
                        eps_diis:                                       1.00E-01
                        eps_eigval:                                     1.00E-05
                        --------------------------------------------------------
                        level_shift [a.u.]:                             0.000000
                        --------------------------------------------------------
                        Outer loop SCF in use 
                        No variables optimised in outer loop
                        eps_scf                                         1.00E-06
                        max_scf                                               25
                        No outer loop optimization
                        step_size                                       5.00E-01

 Number of electrons:                                                       1680
 Number of occupied orbitals:                                                840
 Number of molecular orbitals:                                               840

 Number of orbital functions:                                               3502
 Number of independent orbital functions:                                   3502

 Extrapolation method: initial_guess


 SCF WAVEFUNCTION OPTIMIZATION

  ----------------------------------- OT ---------------------------------------
  Minimizer      : DIIS                : direct inversion
                                         in the iterative subspace
                                         using   7 DIIS vectors
                                         safer DIIS on
  Preconditioner : FULL_SINGLE_INVERSE : inversion of 
                                         H + eS - 2*(Sc)(c^T*H*c+const)(Sc)^T
  Precond_solver : DEFAULT
  stepsize       :    0.08000000                  energy_gap     :    0.05000000
  eps_taylor     :   0.10000E-15                  max_taylor     :             4
  ----------------------------------- OT ---------------------------------------

  Step     Update method      Time    Convergence         Total energy    Change
  ------------------------------------------------------------------------------
     1 OT DIIS     0.80E-01    1.6     0.04801734     -5549.1784637860 -5.55E+03
     2 OT DIIS     0.80E-01    1.0     0.37554892     -4006.9031333913  1.54E+03
     3 OT DIIS     0.80E-01    1.0     0.03205906     -5587.2576096485 -1.58E+03
     4 OT DIIS     0.80E-01    1.0     0.00662280     -5609.8650388636 -2.26E+01
     5 OT DIIS     0.80E-01    1.0     0.00577902     -5621.6140696059 -1.17E+01
     6 OT DIIS     0.80E-01    1.0     0.00493961     -5632.8490244698 -1.12E+01
     7 OT DIIS     0.80E-01    1.0     0.00481279     -5646.5002034897 -1.37E+01
     8 OT DIIS     0.80E-01    1.0     0.00348498     -5659.0980403332 -1.26E+01
     9 OT DIIS     0.80E-01    1.0     0.00369020     -5666.6192400446 -7.52E+00
    10 OT DIIS     0.80E-01    1.0     0.00258103     -5673.8051921439 -7.19E+00
    11 OT DIIS     0.80E-01    1.0     0.00224212     -5681.1197429460 -7.31E+00
    12 OT SD       0.80E-01    1.0     0.00266268     -5687.4968433762 -6.38E+00
    13 OT DIIS     0.80E-01    1.0     0.00566215     -5687.4175094101  7.93E-02
    14 OT DIIS     0.80E-01    1.0     0.00160360     -5690.5511048793 -3.13E+00
    15 OT DIIS     0.80E-01    1.0     0.00190582     -5694.7203135104 -4.17E+00
    16 OT DIIS     0.80E-01    1.0     0.00127928     -5697.0593502372 -2.34E+00
    17 OT DIIS     0.80E-01    1.0     0.00114482     -5700.0639702016 -3.00E+00
    18 OT DIIS     0.80E-01    0.9     0.00105799     -5702.2078237203 -2.14E+00
    19 OT DIIS     0.80E-01    1.0     0.00111535     -5703.6903930693 -1.48E+00
    20 OT DIIS     0.80E-01    1.0     0.00108052     -5703.8151241711 -1.25E-01
    21 OT DIIS     0.80E-01    1.0     0.00085819     -5706.9153043855 -3.10E+00
    22 OT DIIS     0.80E-01    1.0     0.00091204     -5708.2188421352 -1.30E+00
    23 OT DIIS     0.80E-01    1.0     0.00080056     -5709.4384803502 -1.22E+00
    24 OT DIIS     0.80E-01    1.0     0.00073244     -5709.6970690495 -2.59E-01
    25 OT DIIS     0.80E-01    1.0     0.00073283     -5711.6106114847 -1.91E+00
    26 OT DIIS     0.80E-01    1.0     0.00061638     -5712.4710754671 -8.60E-01
    27 OT DIIS     0.80E-01    1.0     0.00060757     -5713.1356271130 -6.65E-01
    28 OT DIIS     0.80E-01    1.0     0.00053484     -5713.8739399966 -7.38E-01
    29 OT DIIS     0.80E-01    1.0     0.00052555     -5714.3556455219 -4.82E-01
    30 OT DIIS     0.80E-01    1.0     0.00047600     -5715.6524439354 -1.30E+00
    31 OT DIIS     0.80E-01    1.0     0.00041033     -5716.0856799857 -4.33E-01
    32 OT DIIS     0.80E-01    1.0     0.00041246     -5716.3385616318 -2.53E-01
    33 OT DIIS     0.80E-01    1.0     0.00037271     -5716.6436325916 -3.05E-01
    34 OT DIIS     0.80E-01    1.0     0.00035866     -5717.0895263897 -4.46E-01
    35 OT DIIS     0.80E-01    1.0     0.00033400     -5717.3770024779 -2.87E-01
    36 OT DIIS     0.80E-01    1.0     0.00031197     -5717.6593300318 -2.82E-01
    37 OT DIIS     0.80E-01    1.0     0.00028853     -5717.9647441254 -3.05E-01
    38 OT DIIS     0.80E-01    1.0     0.00026566     -5718.2324639736 -2.68E-01
    39 OT DIIS     0.80E-01    1.0     0.00025510     -5718.3741561851 -1.42E-01
    40 OT DIIS     0.80E-01    0.9     0.00023958     -5718.5815691361 -2.07E-01
    41 OT DIIS     0.80E-01    1.0     0.00023115     -5718.7024416236 -1.21E-01
    42 OT DIIS     0.80E-01    1.0     0.00022155     -5718.9202532407 -2.18E-01
    43 OT DIIS     0.80E-01    1.0     0.00020609     -5719.0425484806 -1.22E-01
    44 OT DIIS     0.80E-01    1.0     0.00019934     -5719.1194656622 -7.69E-02
    45 OT DIIS     0.80E-01    1.0     0.00019171     -5719.2454902706 -1.26E-01
    46 OT DIIS     0.80E-01    0.9     0.00017919     -5719.3828767642 -1.37E-01
    47 OT DIIS     0.80E-01    1.0     0.00017446     -5719.4489501674 -6.61E-02
    48 OT DIIS     0.80E-01    1.0     0.00016424     -5719.5770500236 -1.28E-01
    49 OT DIIS     0.80E-01    0.9     0.00015862     -5719.6425061682 -6.55E-02
    50 OT DIIS     0.80E-01    0.9     0.00014915     -5719.7598447608 -1.17E-01
    51 OT DIIS     0.80E-01    0.9     0.00014509     -5719.7963381680 -3.65E-02
    52 OT DIIS     0.80E-01    0.9     0.00013957     -5719.8646255589 -6.83E-02
    53 OT DIIS     0.80E-01    1.0     0.00013484     -5719.9156384388 -5.10E-02
    54 OT DIIS     0.80E-01    1.0     0.00012571     -5720.0146627855 -9.90E-02
    55 OT DIIS     0.80E-01    1.0     0.00012250     -5720.0534632861 -3.88E-02
    56 OT DIIS     0.80E-01    0.9     0.00011682     -5720.1236275764 -7.02E-02
    57 OT DIIS     0.80E-01    0.9     0.00011439     -5720.1408231803 -1.72E-02
    58 OT DIIS     0.80E-01    0.9     0.00011065     -5720.1811038387 -4.03E-02
    59 OT DIIS     0.80E-01    1.0     0.00010935     -5720.1894833472 -8.38E-03
    60 OT DIIS     0.80E-01    1.0     0.00010713     -5720.2104124637 -2.09E-02

  Leaving inner SCF loop after reaching    60 steps.


  Electronic density on regular grids:      -1679.9999998410        0.0000001590
  Core density on regular grids:             1679.9999998971       -0.0000001029
  Total dipole moment perpendicular to 
  the slab [electrons-Angstroem]:               1.3926307403
  Total charge density on r-space grids:        0.0000000561
  Total charge density g-space grids:           0.0000000561

  Overlap energy of the core charge distribution:               0.00000093778166
  Self energy of the core charge distribution:             -11448.09706919599375
  Core Hamiltonian energy:                                   2912.43298628454477
  Hartree energy:                                            3730.62103448398375
  Exchange-correlation energy:                               -915.16736497400427

  Total energy:                                             -5720.21041246368804

  outer SCF iter =    1 RMS gradient =   0.11E-03 energy =      -5720.2104124637

  ----------------------------------- OT ---------------------------------------
  Minimizer      : DIIS                : direct inversion
                                         in the iterative subspace
                                         using   7 DIIS vectors
                                         safer DIIS on
  Preconditioner : FULL_SINGLE_INVERSE : inversion of 
                                         H + eS - 2*(Sc)(c^T*H*c+const)(Sc)^T
  Precond_solver : DEFAULT
  stepsize       :    0.08000000                  energy_gap     :    0.05000000
  eps_taylor     :   0.10000E-15                  max_taylor     :             4
  ----------------------------------- OT ---------------------------------------

  Step     Update method      Time    Convergence         Total energy    Change
  ------------------------------------------------------------------------------
     1 OT DIIS     0.80E-01    2.4     0.00100105     -5720.2699721909 -5.96E-02
     2 OT DIIS     0.80E-01    1.0     0.00115315     -5720.4606084934 -1.91E-01
     3 OT DIIS     0.80E-01    1.0     0.00214581     -5720.4800863201 -1.95E-02
     4 OT DIIS     0.80E-01    1.0     0.00123128     -5720.5971229579 -1.17E-01
     5 OT DIIS     0.80E-01    1.0     0.00170090     -5720.6565699584 -5.94E-02
     6 OT DIIS     0.80E-01    1.0     0.00102959     -5720.7643270330 -1.08E-01
     7 OT DIIS     0.80E-01    1.0     0.00093738     -5720.8252575194 -6.09E-02
     8 OT DIIS     0.80E-01    1.0     0.00108273     -5720.8514145217 -2.62E-02
     9 OT DIIS     0.80E-01    1.0     0.00057925     -5720.8791236648 -2.77E-02
    10 OT DIIS     0.80E-01    1.0     0.00052752     -5720.9008862408 -2.18E-02
    11 OT DIIS     0.80E-01    1.0     0.00059903     -5720.9218517173 -2.10E-02
    12 OT DIIS     0.80E-01    1.0     0.00051538     -5720.9354377082 -1.36E-02
    13 OT DIIS     0.80E-01    1.0     0.00077850     -5720.9465637217 -1.11E-02
    14 OT DIIS     0.80E-01    1.0     0.00040376     -5721.0013407463 -5.48E-02
    15 OT DIIS     0.80E-01    1.0     0.00034572     -5721.0174440518 -1.61E-02
    16 OT DIIS     0.80E-01    1.0     0.00043098     -5721.0200652931 -2.62E-03
    17 OT DIIS     0.80E-01    1.0     0.00033150     -5721.0248383106 -4.77E-03
    18 OT DIIS     0.80E-01    1.0     0.00024887     -5721.0289631869 -4.12E-03
    19 OT DIIS     0.80E-01    1.0     0.00034564     -5721.0327984121 -3.84E-03
    20 OT DIIS     0.80E-01    0.9     0.00016874     -5721.0376107179 -4.81E-03
    21 OT DIIS     0.80E-01    1.0     0.00012579     -5721.0390123671 -1.40E-03
    22 OT DIIS     0.80E-01    1.0     0.00020672     -5721.0384520520  5.60E-04
    23 OT DIIS     0.80E-01    1.0     0.00008737     -5721.0398767189 -1.42E-03
    24 OT DIIS     0.80E-01    0.9     0.00006504     -5721.0407020358 -8.25E-04
    25 OT DIIS     0.80E-01    1.0     0.00010127     -5721.0410546450 -3.53E-04
    26 OT DIIS     0.80E-01    1.0     0.00007999     -5721.0415144157 -4.60E-04
    27 OT DIIS     0.80E-01    1.0     0.00006941     -5721.0418276753 -3.13E-04
    28 OT DIIS     0.80E-01    1.0     0.00008096     -5721.0417802207  4.75E-05
    29 OT DIIS     0.80E-01    1.0     0.00005262     -5721.0419983140 -2.18E-04
    30 OT DIIS     0.80E-01    1.0     0.00006364     -5721.0424542219 -4.56E-04
    31 OT DIIS     0.80E-01    1.0     0.00004791     -5721.0424872904 -3.31E-05
    32 OT DIIS     0.80E-01    0.9     0.00004103     -5721.0424458380  4.15E-05
    33 OT DIIS     0.80E-01    0.9     0.00004985     -5721.0426762832 -2.30E-04
    34 OT DIIS     0.80E-01    1.0     0.00004067     -5721.0427591190 -8.28E-05
    35 OT DIIS     0.80E-01    1.0     0.00003726     -5721.0428196205 -6.05E-05
    36 OT DIIS     0.80E-01    0.9     0.00004362     -5721.0428614864 -4.19E-05
    37 OT DIIS     0.80E-01    1.0     0.00003031     -5721.0429061354 -4.46E-05
    38 OT DIIS     0.80E-01    1.0     0.00003125     -5721.0430444129 -1.38E-04
    39 OT DIIS     0.80E-01    1.0     0.00002931     -5721.0430970796 -5.27E-05
    40 OT DIIS     0.80E-01    1.0     0.00002961     -5721.0430742551  2.28E-05
    41 OT DIIS     0.80E-01    1.0     0.00003062     -5721.0431937398 -1.19E-04
    42 OT DIIS     0.80E-01    0.9     0.00002748     -5721.0432245679 -3.08E-05
    43 OT DIIS     0.80E-01    0.9     0.00002611     -5721.0432407525 -1.62E-05
    44 OT DIIS     0.80E-01    0.9     0.00002860     -5721.0432901631 -4.94E-05
    45 OT DIIS     0.80E-01    0.9     0.00002291     -5721.0433020642 -1.19E-05
    46 OT DIIS     0.80E-01    1.0     0.00002058     -5721.0433437453 -4.17E-05
    47 OT DIIS     0.80E-01    0.9     0.00001937     -5721.0433779567 -3.42E-05
    48 OT DIIS     0.80E-01    0.9     0.00002060     -5721.0433807847 -2.83E-06
    49 OT DIIS     0.80E-01    1.0     0.00001918     -5721.0434285077 -4.77E-05
    50 OT DIIS     0.80E-01    1.0     0.00001895     -5721.0434472367 -1.87E-05
    51 OT DIIS     0.80E-01    0.9     0.00001884     -5721.0434544233 -7.19E-06
    52 OT DIIS     0.80E-01    1.0     0.00001931     -5721.0434961144 -4.17E-05
    53 OT DIIS     0.80E-01    0.9     0.00001895     -5721.0435144827 -1.84E-05
    54 OT DIIS     0.80E-01    1.0     0.00001676     -5721.0435188872 -4.40E-06
    55 OT DIIS     0.80E-01    1.0     0.00001555     -5721.0435426824 -2.38E-05
    56 OT DIIS     0.80E-01    0.9     0.00001673     -5721.0435595077 -1.68E-05
    57 OT DIIS     0.80E-01    1.0     0.00001505     -5721.0435779064 -1.84E-05
    58 OT DIIS     0.80E-01    0.9     0.00001483     -5721.0435889727 -1.11E-05
    59 OT DIIS     0.80E-01    1.0     0.00001441     -5721.0435915919 -2.62E-06
    60 OT DIIS     0.80E-01    1.0     0.00001361     -5721.0436181807 -2.66E-05

  Leaving inner SCF loop after reaching    60 steps.


  Electronic density on regular grids:      -1679.9999998413        0.0000001587
  Core density on regular grids:             1679.9999998971       -0.0000001029
  Total dipole moment perpendicular to 
  the slab [electrons-Angstroem]:               1.6718624998
  Total charge density on r-space grids:        0.0000000557
  Total charge density g-space grids:           0.0000000557

  Overlap energy of the core charge distribution:               0.00000093778166
  Self energy of the core charge distribution:             -11448.09706919599375
  Core Hamiltonian energy:                                   2910.35817674251712
  Hartree energy:                                            3731.88916192064471
  Exchange-correlation energy:                               -915.19388858569869

  Total energy:                                             -5721.04361818074995

  outer SCF iter =    2 RMS gradient =   0.14E-04 energy =      -5721.0436181807

  ----------------------------------- OT ---------------------------------------
  Minimizer      : DIIS                : direct inversion
                                         in the iterative subspace
                                         using   7 DIIS vectors
                                         safer DIIS on
  Preconditioner : FULL_SINGLE_INVERSE : inversion of 
                                         H + eS - 2*(Sc)(c^T*H*c+const)(Sc)^T
  Precond_solver : DEFAULT
  stepsize       :    0.08000000                  energy_gap     :    0.05000000
  eps_taylor     :   0.10000E-15                  max_taylor     :             4
  ----------------------------------- OT ---------------------------------------

  Step     Update method      Time    Convergence         Total energy    Change
  ------------------------------------------------------------------------------
     1 OT DIIS     0.80E-01    2.3     0.00002238     -5721.0436400515 -2.19E-05
     2 OT DIIS     0.80E-01    0.9     0.00003097     -5721.0437121687 -7.21E-05
     3 OT DIIS     0.80E-01    0.9     0.00001752     -5721.0437513253 -3.92E-05
     4 OT DIIS     0.80E-01    0.9     0.00002327     -5721.0438624037 -1.11E-04
     5 OT DIIS     0.80E-01    0.9     0.00000843     -5721.0439276527 -6.52E-05
     6 OT DIIS     0.80E-01    0.9     0.00000670     -5721.0439351168 -7.46E-06
     7 OT DIIS     0.80E-01    0.9     0.00000651     -5721.0439481761 -1.31E-05
     8 OT DIIS     0.80E-01    0.9     0.00000567     -5721.0439706958 -2.25E-05
     9 OT DIIS     0.80E-01    0.9     0.00000556     -5721.0439712067 -5.11E-07
    10 OT DIIS     0.80E-01    0.9     0.00000381     -5721.0439859552 -1.47E-05
    11 OT DIIS     0.80E-01    0.9     0.00000316     -5721.0439892693 -3.31E-06
    12 OT DIIS     0.80E-01    0.9     0.00000307     -5721.0439922654 -3.00E-06
    13 OT DIIS     0.80E-01    0.9     0.00000299     -5721.0439959722 -3.71E-06
    14 OT DIIS     0.80E-01    0.9     0.00000287     -5721.0439972213 -1.25E-06
    15 OT DIIS     0.80E-01    0.9     0.00000234     -5721.0440002134 -2.99E-06
    16 OT DIIS     0.80E-01    0.9     0.00000165     -5721.0440020783 -1.86E-06
    17 OT DIIS     0.80E-01    0.9     0.00000174     -5721.0440024802 -4.02E-07
    18 OT DIIS     0.80E-01    0.9     0.00000128     -5721.0440031235 -6.43E-07
    19 OT DIIS     0.80E-01    0.9     0.00000126     -5721.0440034819 -3.58E-07
    20 OT DIIS     0.80E-01    0.9     0.00000130     -5721.0440038959 -4.14E-07
    21 OT DIIS     0.80E-01    0.9     0.00000113     -5721.0440041603 -2.64E-07
    22 OT DIIS     0.80E-01    0.9     0.00000100     -5721.0440042160 -5.58E-08
    23 OT DIIS     0.80E-01    0.9     0.00000077     -5721.0440043355 -1.19E-07

  *** SCF run converged in    23 steps ***


  Electronic density on regular grids:      -1679.9999998415        0.0000001585
  Core density on regular grids:             1679.9999998971       -0.0000001029
  Total dipole moment perpendicular to 
  the slab [electrons-Angstroem]:               1.6764969612
  Total charge density on r-space grids:        0.0000000556
  Total charge density g-space grids:           0.0000000556

  Overlap energy of the core charge distribution:               0.00000093778166
  Self energy of the core charge distribution:             -11448.09706919599375
  Core Hamiltonian energy:                                   2910.35597992882231
  Hartree energy:                                            3731.89093487538639
  Exchange-correlation energy:                               -915.19385088148147

  Total energy:                                             -5721.04400433548471

  outer SCF iter =    3 RMS gradient =   0.77E-06 energy =      -5721.0440043355
  outer SCF loop converged in   3 iterations or  143 steps


 ENERGY| Total FORCE_EVAL ( QS ) energy [a.u.]:            -5721.044004416982716

 ATOMIC FORCES in [a.u.]

 # Atom   Kind   Element          X              Y              Z
      1      1      Sr          0.00002424    -0.00013916     0.02960919
      2      1      Sr         -0.00002397    -0.00013914     0.02960866
      3      1      Sr          0.00000811     0.00005396     0.02959390
      4      1      Sr          0.00003155     0.00008519     0.02961758
      5      1      Sr         -0.00000802     0.00005398     0.02959293
      6      1      Sr         -0.00003158     0.00008493     0.02961680
      7      1      Sr          0.00016028    -0.00046872     0.00298593
      8      1      Sr         -0.00015830    -0.00048475     0.00298851
      9      1      Sr          0.00001248     0.00017963     0.00280180
     10      1      Sr          0.00017408     0.00029261     0.00306406
     11      1      Sr         -0.00001206     0.00018015     0.00281208
     12      1      Sr         -0.00017345     0.00029839     0.00307826
     13      1      Sr          0.00228936    -0.00212015     0.01540142
     14      1      Sr         -0.00224877    -0.00294085     0.01471875
     15      1      Sr         -0.00013070     0.00038272     0.01385159
     16      1      Sr          0.00115642     0.00237657     0.01381358
     17      1      Sr          0.00038414     0.00132727     0.01633265
     18      1      Sr         -0.00141965     0.00102435     0.01506689
     19      2      Hf          0.01203171    -0.02592779    -0.05197735
     20      2      Hf          0.01196199    -0.02596119    -0.05203438
     21      2      Hf         -0.03671248     0.01395604    -0.00714168
     22      2      Hf         -0.03684448     0.01407024    -0.00711939
     23      2      Hf          0.02423643    -0.00130617     0.01517755
     24      2      Hf          0.02429076    -0.00125073     0.01513656
     25      2      Hf          0.01013285    -0.03010523     0.04191594
     26      2      Hf          0.01012358    -0.03005098     0.04193981
     27      2      Hf          0.00482536     0.00127346    -0.01833016
     28      2      Hf          0.00486263     0.00141792    -0.01823544
     29      2      Hf          0.00337832    -0.00017870     0.02788793
     30      2      Hf          0.00340139    -0.00010279     0.02788886
     31      2      Hf          0.00420735     0.05067567     0.01329503
     32      2      Hf          0.00409695     0.05065577     0.01330430
     33      2      Hf         -0.01002116    -0.05000803    -0.01750906
     34      2      Hf         -0.01000928    -0.05010289    -0.01729939
     35      2      Hf          0.00221622     0.00142957    -0.02441035
     36      2      Hf          0.00216136     0.00140267    -0.02390494
     37      2      Hf         -0.00246279    -0.00128203     0.02394114
     38      2      Hf         -0.00243774    -0.00160374     0.02391482
     39      2      Hf          0.00664521     0.04964716     0.01166432
     40      2      Hf          0.00683415     0.04963352     0.01209973
     41      2      Hf         -0.00676185    -0.04934741    -0.01180553
     42      2      Hf         -0.00671891    -0.05000125    -0.01185600
     43      2      Hf         -0.00266841     0.00145244    -0.02816545
     44      2      Hf         -0.00231645    -0.00071998    -0.02565922
     45      2      Hf         -0.00379283    -0.00092113     0.02135314
     46      2      Hf         -0.00475874    -0.00162066     0.01763890
     47      2      Hf          0.00962694     0.05044611     0.01654059
     48      2      Hf          0.00957097     0.04897360     0.01668932
     49      2      Hf         -0.00479194    -0.04994601    -0.01341877
     50      2      Hf         -0.00455053    -0.05087132    -0.01430697
     51      2      Hf          0.03414262    -0.01088563    -0.00592942
     52      2      Hf          0.03109235    -0.01603084    -0.00633948
     53      2      Hf         -0.00591148     0.02244766     0.03937159
     54      2      Hf         -0.01914318     0.02680542     0.03927698
     55      2      Hf         -0.01459915     0.05078277    -0.03068686
     56      2      Hf         -0.00486518     0.01917795    -0.04137420
     57      2      Hf         -0.01817921    -0.01902137    -0.02046920
     58      2      Hf         -0.02929965     0.00446392    -0.01869609
     59      3      Ti         -0.00000486    -0.00023437    -0.01765390
     60      3      Ti         -0.00000690    -0.00010602    -0.01775910
     61      3      Ti         -0.00000508     0.00032351    -0.01709706
     62      3      Ti          0.00000281    -0.00011274    -0.01618505
     63      3      Ti          0.00000005     0.00021710    -0.01740982
     64      3      Ti          0.00000532    -0.00009185    -0.01684894
     65      3      Ti         -0.00013273    -0.00125736    -0.00397527
     66      3      Ti         -0.00005418    -0.00030652    -0.00582864
     67      3      Ti          0.00005832     0.00160533    -0.00212802
     68      3      Ti          0.00014908    -0.00032526     0.00333867
     69      3      Ti         -0.00008056     0.00056458    -0.00391984
     70      3      Ti          0.00000328    -0.00032086    -0.00184200
     71      3      Ti         -0.00309121    -0.00951879    -0.05378178
     72      3      Ti          0.00816754     0.01131369    -0.04051667
     73      3      Ti          0.02074455     0.00098820    -0.00957974
     74      3      Ti          0.00064552     0.01353346     0.00998681
     75      3      Ti         -0.01970625    -0.01323221    -0.04074544
     76      3      Ti         -0.00580719    -0.00258050    -0.03248979
     77      4      O           0.00000002     0.00039335    -0.00129329
     78      4      O           0.00000042     0.00027550    -0.00122080
     79      4      O          -0.00000000    -0.00018747    -0.00119579
     80      4      O           0.00000115    -0.00024305    -0.00133432
     81      4      O          -0.00000029    -0.00006611    -0.00118512
     82      4      O          -0.00000032    -0.00016792    -0.00125471
     83      4      O          -0.00001046     0.00006310    -0.00145991
     84      4      O           0.00002176     0.00006276    -0.00146072
     85      4      O          -0.00006695    -0.00010008    -0.00157950
     86      4      O          -0.00013418     0.00003707    -0.00177602
     87      4      O           0.00006952    -0.00009919    -0.00157927
     88      4      O           0.00012725     0.00003570    -0.00177518
     89      4      O           0.00000465     0.00005663    -0.01424439
     90      4      O           0.00000539     0.00002778    -0.01422690
     91      4      O           0.00000291    -0.00007960    -0.01439771
     92      4      O          -0.00000223     0.00003055    -0.01462764
     93      4      O          -0.00000100    -0.00005644    -0.01431119
     94      4      O          -0.00000428     0.00002346    -0.01445664
     95      4      O          -0.00000677     0.00186305    -0.00114987
     96      4      O           0.00000732     0.00100636    -0.00056825
     97      4      O          -0.00006242    -0.00100880    -0.00052520
     98      4      O          -0.00007996    -0.00139781    -0.00116221
     99      4      O           0.00004200     0.00016010    -0.00064218
    100      4      O           0.00009848    -0.00050285    -0.00059369
    101      4      O          -0.00026551     0.00019233     0.00034241
    102      4      O           0.00037728     0.00033692     0.00036132
    103      4      O          -0.00038854    -0.00038040    -0.00032908
    104      4      O          -0.00100451     0.00002972    -0.00125432
    105      4      O           0.00043276    -0.00038495    -0.00021342
    106      4      O           0.00092077     0.00021947    -0.00130194
    107      4      O           0.00004405     0.00019835     0.00631243
    108      4      O           0.00003806     0.00004136     0.00649028
    109      4      O           0.00001023    -0.00026352     0.00524248
    110      4      O          -0.00003024     0.00007863     0.00350134
    111      4      O           0.00000645    -0.00008365     0.00599634
    112      4      O          -0.00002940     0.00005687     0.00514162
    113      4      O           0.00228947     0.01639994    -0.00833540
    114      4      O          -0.00147628     0.00207760     0.01420156
    115      4      O          -0.00536638    -0.00553754    -0.00034310
    116      4      O           0.00188562    -0.00056649     0.00380649
    117      4      O           0.00235371    -0.00180841    -0.00388216
    118      4      O           0.00233807    -0.00383411     0.01252577
    119      4      O           0.00212581     0.00208448     0.00904512
    120      4      O           0.00614376    -0.00092640     0.01566799
    121      4      O          -0.00381169    -0.00018391     0.01651050
    122      4      O          -0.01494151    -0.00191761    -0.00128495
    123      4      O           0.00678739     0.00578137    -0.00532893
    124      4      O           0.00773641    -0.00296984    -0.00660503
    125      4      O           0.00100204     0.00099516     0.01699515
    126      4      O          -0.00005568    -0.00120475     0.02029598
    127      4      O          -0.00168864    -0.00016709     0.01408206
    128      4      O          -0.00081649     0.00034604     0.00348312
    129      4      O           0.00198636     0.00076773     0.01807129
    130      4      O           0.00005452     0.00022304     0.01501352
    131      4      O          -0.03558151    -0.01564429     0.01863899
    132      4      O          -0.03594358    -0.01623799     0.01871260
    133      4      O           0.05575508     0.00129093     0.00669740
    134      4      O           0.05539079     0.00257763     0.00671566
    135      4      O          -0.01927216     0.02165883    -0.01569701
    136      4      O          -0.01887553     0.02350274    -0.01566185
    137      4      O          -0.00939433     0.03689391    -0.00439368
    138      4      O          -0.00901131     0.03701550    -0.00438662
    139      4      O          -0.00591798    -0.01157561    -0.02814359
    140      4      O          -0.00605593    -0.01304602    -0.02818759
    141      4      O          -0.00710204    -0.00249843    -0.00115383
    142      4      O          -0.00689093    -0.00394899    -0.00109096
    143      4      O          -0.04003684     0.01602854    -0.00535940
    144      4      O          -0.03997473     0.01751066    -0.00539268
    145      4      O           0.01183038     0.01863888     0.00285097
    146      4      O           0.01213204     0.01855574     0.00281230
    147      4      O          -0.02394733     0.00424702    -0.00219276
    148      4      O          -0.02367169     0.00602491    -0.00209569
    149      4      O           0.02396406    -0.00467772    -0.00128422
    150      4      O           0.02433649    -0.00490489    -0.00125457
    151      4      O           0.01326033    -0.01608805     0.00697063
    152      4      O           0.01285750    -0.01654326     0.00703029
    153      4      O          -0.00732015     0.01676920     0.00958330
    154      4      O          -0.00770158     0.01804580     0.00943134
    155      4      O          -0.00256502     0.00009675     0.00837651
    156      4      O          -0.00236033    -0.00110483     0.00839449
    157      4      O           0.00665088     0.00235941     0.00451206
    158      4      O           0.00650072     0.00057392     0.00441943
    159      4      O          -0.00697899    -0.01406496    -0.01584328
    160      4      O          -0.00697885    -0.01433748    -0.01606697
    161      4      O           0.00461669     0.01308734     0.00677017
    162      4      O           0.00425421     0.01452283     0.00666616
    163      4      O          -0.02674243     0.00341052    -0.00042739
    164      4      O          -0.02706730     0.00473692    -0.00037856
    165      4      O           0.02667235    -0.00283301    -0.00024694
    166      4      O           0.02636264    -0.00506541    -0.00030837
    167      4      O           0.00677262    -0.01813495    -0.00741233
    168      4      O           0.00706787    -0.01941945    -0.00746172
    169      4      O          -0.00659617     0.01780440     0.00822108
    170      4      O          -0.00653701     0.01939055     0.00765442
    171      4      O          -0.00374488    -0.00027771    -0.00656005
    172      4      O          -0.00406989     0.00022200    -0.00639807
    173      4      O           0.00386222    -0.00031843     0.00598573
    174      4      O           0.00392436     0.00030758     0.00506812
    175      4      O          -0.00656453    -0.01432753    -0.00587068
    176      4      O          -0.00658453    -0.01597387    -0.00598609
    177      4      O           0.00598769     0.01442805     0.00537181
    178      4      O           0.00643073     0.01633088     0.00532354
    179      4      O          -0.02420359     0.00467297     0.00022886
    180      4      O          -0.02352771     0.00400276     0.00094279
    181      4      O           0.02310760    -0.00494974     0.00141880
    182      4      O           0.02367127    -0.00450546     0.00079372
    183      4      O           0.00844858    -0.01745638    -0.00847199
    184      4      O           0.00806267    -0.01786637    -0.00824247
    185      4      O          -0.01309921     0.01725887    -0.00500943
    186      4      O          -0.01336246     0.01657658    -0.00441780
    187      4      O          -0.00720248    -0.00183375    -0.00532600
    188      4      O          -0.00702111    -0.00004914    -0.00484712
    189      4      O           0.00405888    -0.00060116    -0.00787987
    190      4      O           0.00264273     0.00093548    -0.00856391
    191      4      O          -0.00409618    -0.01431302    -0.00743503
    192      4      O          -0.00377088    -0.01413855    -0.00748010
    193      4      O           0.00642972     0.01419666     0.01229600
    194      4      O           0.00633940     0.01469926     0.01518598
    195      4      O          -0.04935377     0.00048696    -0.00213327
    196      4      O          -0.05260958    -0.00100468    -0.01165621
    197      4      O           0.03437326     0.01182814    -0.01598990
    198      4      O           0.03413787     0.01512577    -0.01988094
    199      4      O           0.00854243    -0.03840236    -0.00277651
    200      4      O           0.00854256    -0.03410198     0.00707479
    201      4      O           0.01416980    -0.02400015    -0.01014223
    202      4      O           0.01740303    -0.01731416     0.03087350
    203      4      O           0.00330581     0.00526556    -0.00215635
    204      4      O           0.00706793     0.00013217     0.00199151
    205      4      O           0.01267406     0.00840986     0.03733084
    206      4      O           0.00190816     0.00749457     0.01313455
    207      4      O          -0.01021393    -0.01991368    -0.00329241
    208      4      O          -0.00995505    -0.01711514    -0.00307989
    209      4      O           0.04208942    -0.01213184     0.00210163
    210      4      O           0.03676950    -0.01837911     0.01265346
 SUM OF ATOMIC FORCES           0.00105604    -0.00028368    -0.01712878     0.01716365

 STRESS| Analytical stress tensor [GPa]
 STRESS|                        x                   y                   z
 STRESS|      x       -9.30557562275E+00  -7.38607636020E+00  -1.65632671023E+00
 STRESS|      y       -7.38607636020E+00  -4.18752583105E-01   6.81427842312E-01
 STRESS|      z       -1.65632671023E+00   6.81427842312E-01  -2.47310592810E+00
 STRESS| 1/3 Trace                                            -4.06581137799E+00
 STRESS| Determinant                                           1.47423736000E+02

 STRESS| Eigenvectors and eigenvalues of the analytical stress tensor [GPa]
 STRESS|                        1                   2                   3
 STRESS| Eigenvalues  -1.35930259911E+01  -2.66857619638E+00   4.06416805347E+00
 STRESS|      x           0.870089971857      0.018277180413     -0.492553941767
 STRESS|      y           0.482636946576     -0.234387999687      0.843874305452
 STRESS|      z           0.100025090222      0.971971301160      0.212759890597

 -------------------------------------------------------------------------------
 -                                                                             -
 -                                DBCSR STATISTICS                             -
 -                                                                             -
 -------------------------------------------------------------------------------
 COUNTER                                    TOTAL       BLAS       SMM       ACC
 flops    14 x     8 x     8               193536       0.0%    100.0%      0.0%     
 flops     8 x     8 x   431               331008       0.0%    100.0%      0.0%     
 flops     8 x     8 x   432               331776       0.0%    100.0%      0.0%     
 flops     8 x     8 x   444               340992       0.0%    100.0%      0.0%     
 flops    26 x     8 x     8              1158144       0.0%    100.0%      0.0%     
 flops    13 x     8 x     8              1337856       0.0%    100.0%      0.0%     
 flops    14 x    32 x     8             10063872       0.0%    100.0%      0.0%     
 flops    14 x     8 x    32             10063872       0.0%    100.0%      0.0%     
 flops     8 x    32 x   431             17212416       0.0%    100.0%      0.0%     
 flops    32 x     8 x   431             17212416       0.0%    100.0%      0.0%     
 flops     8 x    32 x   432             17252352       0.0%    100.0%      0.0%     
 flops    32 x     8 x   432             17252352       0.0%    100.0%      0.0%     
 flops     8 x    32 x   444             17731584       0.0%    100.0%      0.0%     
 flops    32 x     8 x   444             17731584       0.0%    100.0%      0.0%     
 flops    26 x    32 x     8             60223488       0.0%    100.0%      0.0%     
 flops    26 x     8 x    32             60223488       0.0%    100.0%      0.0%     
 flops    13 x    32 x     8             69568512       0.0%    100.0%      0.0%     
 flops    13 x     8 x    32             69568512       0.0%    100.0%      0.0%     
 flops    14 x     8 x    14            305835264       0.0%    100.0%      0.0%     
 flops    52 x   104 x   104            797528576       0.0%    100.0%      0.0%     
 flops    53 x   104 x   104            812865664       0.0%    100.0%      0.0%     
 flops    65 x   104 x   104            996910720       0.0%    100.0%      0.0%     
 flops    66 x   104 x   104           1012247808       0.0%    100.0%      0.0%     
 flops    14 x    14 x   104           1031756544       0.0%    100.0%      0.0%     
 flops    40 x   104 x   104           1040066560       0.0%    100.0%      0.0%     
 flops    14 x    32 x    32           1086898176       0.0%    100.0%      0.0%     
 flops    13 x     8 x    14           1160501888       0.0%    100.0%      0.0%     
 flops    14 x     8 x    13           1160501888       0.0%    100.0%      0.0%     
 flops    78 x   104 x   104           1196292864       0.0%    100.0%      0.0%     
 flops    26 x     8 x    14           1214845632       0.0%    100.0%      0.0%     
 flops    14 x     8 x    26           1214845632       0.0%    100.0%      0.0%     
 flops    80 x   104 x   104           1226967040       0.0%    100.0%      0.0%     
 flops    52 x   104 x   431           1361215232       0.0%    100.0%      0.0%     
 flops    52 x   104 x   432           1364373504       0.0%    100.0%      0.0%     
 flops    53 x   104 x   431           1387392448       0.0%    100.0%      0.0%     
 flops    53 x   104 x   432           1390611456       0.0%    100.0%      0.0%     
 flops    52 x   104 x   444           1402272768       0.0%    100.0%      0.0%     
 flops    53 x   104 x   444           1429239552       0.0%    100.0%      0.0%     
 flops    64 x   104 x   104           1664106496       0.0%    100.0%      0.0%     
 flops    65 x   104 x   431           1701519040       0.0%    100.0%      0.0%     
 flops    65 x   104 x   432           1705466880       0.0%    100.0%      0.0%     
 flops    66 x   104 x   431           1727696256       0.0%    100.0%      0.0%     
 flops    66 x   104 x   432           1731704832       0.0%    100.0%      0.0%     
 flops    65 x   104 x   444           1752840960       0.0%    100.0%      0.0%     
 flops    66 x   104 x   444           1779807744       0.0%    100.0%      0.0%     
 flops    32 x    32 x   431           1858940928       0.0%    100.0%      0.0%     
 flops    32 x    32 x   432           1863254016       0.0%    100.0%      0.0%     
 flops    32 x    32 x   444           1915011072       0.0%    100.0%      0.0%     
 flops    52 x   104 x   128           1963147264       0.0%    100.0%      0.0%     
 flops    52 x   128 x   104           1963147264       0.0%    100.0%      0.0%     
 flops    53 x   104 x   128           2000900096       0.0%    100.0%      0.0%     
 flops    53 x   128 x   104           2000900096       0.0%    100.0%      0.0%     
 flops    78 x   104 x   431           2041822848       0.0%    100.0%      0.0%     
 flops    78 x   104 x   432           2046560256       0.0%    100.0%      0.0%     
 flops    80 x   104 x   431           2094177280       0.0%    100.0%      0.0%     
 flops    80 x   104 x   432           2099036160       0.0%    100.0%      0.0%     
 flops    78 x   104 x   444           2103409152       0.0%    100.0%      0.0%     
 flops    80 x   104 x   444           2157342720       0.0%    100.0%      0.0%     
 flops    65 x   104 x   128           2453934080       0.0%    100.0%      0.0%     
 flops    65 x   128 x   104           2453934080       0.0%    100.0%      0.0%     
 flops    66 x   128 x   104           2491686912       0.0%    100.0%      0.0%     
 flops    66 x   104 x   128           2491686912       0.0%    100.0%      0.0%     
 flops    14 x    14 x   128           2539708416       0.0%    100.0%      0.0%     
 flops    40 x   104 x   128           2560163840       0.0%    100.0%      0.0%     
 flops    40 x   128 x   104           2560163840       0.0%    100.0%      0.0%     
 flops    92 x   104 x   104           2822024192       0.0%    100.0%      0.0%     
 flops    78 x   128 x   104           2944720896       0.0%    100.0%      0.0%     
 flops    78 x   104 x   128           2944720896       0.0%    100.0%      0.0%     
 flops    80 x   104 x   128           3020226560       0.0%    100.0%      0.0%     
 flops    80 x   128 x   104           3020226560       0.0%    100.0%      0.0%     
 flops    52 x   128 x   431           3350683648       0.0%    100.0%      0.0%     
 flops    52 x   128 x   432           3358457856       0.0%    100.0%      0.0%     
 flops    53 x   128 x   431           3415119872       0.0%    100.0%      0.0%     
 flops    53 x   128 x   432           3423043584       0.0%    100.0%      0.0%     
 flops    52 x   128 x   444           3451748352       0.0%    100.0%      0.0%     
 flops    53 x   128 x   444           3518128128       0.0%    100.0%      0.0%     
 flops    52 x    96 x   104           3680901120       0.0%    100.0%      0.0%     
 flops    52 x   104 x    96           3680901120       0.0%    100.0%      0.0%     
 flops    53 x    96 x   104           3751687680       0.0%    100.0%      0.0%     
 flops    53 x   104 x    96           3751687680       0.0%    100.0%      0.0%     
 flops    13 x    14 x   104           3759782208       0.0%    100.0%      0.0%     
 flops    14 x    13 x   104           3781738688       0.0%    100.0%      0.0%     
 flops    26 x    14 x   104           3884101312       0.0%    100.0%      0.0%     
 flops    14 x    26 x   104           3960948992       0.0%    100.0%      0.0%     
 flops   130 x   104 x   104           3987642880       0.0%    100.0%      0.0%     
 flops    40 x   104 x   431           4080776960       0.0%    100.0%      0.0%     
 flops    40 x   104 x   432           4090245120       0.0%    100.0%      0.0%     
 flops    64 x   128 x   104           4096262144       0.0%    100.0%      0.0%     
 flops    64 x   104 x   128           4096262144       0.0%    100.0%      0.0%     
 flops    65 x   128 x   431           4188354560       0.0%    100.0%      0.0%     
 flops    65 x   128 x   432           4198072320       0.0%    100.0%      0.0%     
 flops    40 x   104 x   444           4203863040       0.0%    100.0%      0.0%     
 flops    66 x   128 x   431           4252790784       0.0%    100.0%      0.0%     
 flops    66 x   128 x   432           4262658048       0.0%    100.0%      0.0%     
 flops    65 x   128 x   444           4314685440       0.0%    100.0%      0.0%     
 flops    66 x   128 x   444           4381065216       0.0%    100.0%      0.0%     
 flops    65 x    96 x   104           4601126400       0.0%    100.0%      0.0%     
 flops    65 x   104 x    96           4601126400       0.0%    100.0%      0.0%     
 flops    66 x    96 x   104           4671912960       0.0%    100.0%      0.0%     
 flops    66 x   104 x    96           4671912960       0.0%    100.0%      0.0%     
 flops    14 x    14 x    96           4761953280       0.0%    100.0%      0.0%     
 flops   104 x   104 x   104           4785171456       0.0%    100.0%      0.0%     
 flops    40 x    96 x   104           4800307200       0.0%    100.0%      0.0%     
 flops    40 x   104 x    96           4800307200       0.0%    100.0%      0.0%     
 flops    92 x   104 x   431           4816607744       0.0%    100.0%      0.0%     
 flops    92 x   104 x   432           4827783168       0.0%    100.0%      0.0%     
 flops    52 x   128 x   128           4832362496       0.0%    100.0%      0.0%     
 flops    53 x   128 x   128           4925292544       0.0%    100.0%      0.0%     
 flops    92 x   104 x   444           4961888256       0.0%    100.0%      0.0%     
 flops    78 x   128 x   431           5026025472       0.0%    100.0%      0.0%     
 flops    78 x   128 x   432           5037686784       0.0%    100.0%      0.0%     
 flops    80 x   128 x   431           5154897920       0.0%    100.0%      0.0%     
 flops    80 x   128 x   432           5166858240       0.0%    100.0%      0.0%     
 flops    78 x   128 x   444           5177622528       0.0%    100.0%      0.0%     
 flops    80 x   128 x   444           5310382080       0.0%    100.0%      0.0%     
 flops    78 x    96 x   104           5521351680       0.0%    100.0%      0.0%     
 flops    78 x   104 x    96           5521351680       0.0%    100.0%      0.0%     
 flops    80 x    96 x   104           5662924800       0.0%    100.0%      0.0%     
 flops    80 x   104 x    96           5662924800       0.0%    100.0%      0.0%     
 flops    65 x   128 x   128           6040453120       0.0%    100.0%      0.0%     
 flops    66 x   128 x   128           6133383168       0.0%    100.0%      0.0%     
 flops    52 x    96 x   431           6282531840       0.0%    100.0%      0.0%     
 flops    52 x    96 x   432           6297108480       0.0%    100.0%      0.0%     
 flops    40 x   128 x   128           6301941760       0.0%    100.0%      0.0%     
 flops    53 x    96 x   431           6403349760       0.0%    100.0%      0.0%     
 flops    53 x    96 x   432           6418206720       0.0%    100.0%      0.0%     
 flops    52 x    96 x   444           6472028160       0.0%    100.0%      0.0%     
 flops    26 x    32 x    32           6504136704       0.0%    100.0%      0.0%     
 flops    64 x   104 x   431           6529243136       0.0%    100.0%      0.0%     
 flops    64 x   104 x   432           6544392192       0.0%    100.0%      0.0%     
 flops    53 x    96 x   444           6596490240       0.0%    100.0%      0.0%     
 flops    64 x   104 x   444           6726180864       0.0%    100.0%      0.0%     
 flops   130 x   104 x   431           6806076160       0.0%    100.0%      0.0%     
 flops   130 x   104 x   432           6821867520       0.0%    100.0%      0.0%     
 flops    92 x   104 x   128           6946521088       0.0%    100.0%      0.0%     
 flops    92 x   128 x   104           6946521088       0.0%    100.0%      0.0%     
 flops   130 x   104 x   444           7011363840       0.0%    100.0%      0.0%     
 flops    13 x     8 x    13           7201422592       0.0%    100.0%      0.0%     
 flops   118 x   104 x   104           7239105536       0.0%    100.0%      0.0%     
 flops    78 x   128 x   128           7248543744       0.0%    100.0%      0.0%     
 flops    80 x   128 x   128           7434403840       0.0%    100.0%      0.0%     
 flops    13 x    32 x    32           7513399296       0.0%    100.0%      0.0%     
 flops    64 x    96 x   104           7680491520       0.0%    100.0%      0.0%     
 flops    64 x   104 x    96           7680491520       0.0%    100.0%      0.0%     
 flops    65 x    96 x   431           7853164800       0.0%    100.0%      0.0%     
 flops    65 x    96 x   432           7871385600       0.0%    100.0%      0.0%     
 flops    66 x    96 x   431           7973982720       0.0%    100.0%      0.0%     
 flops    66 x    96 x   432           7992483840       0.0%    100.0%      0.0%     
 flops    65 x    96 x   444           8090035200       0.0%    100.0%      0.0%     
 flops   104 x   104 x   431           8167291392       0.0%    100.0%      0.0%     
 flops   104 x   104 x   432           8186241024       0.0%    100.0%      0.0%     
 flops    66 x    96 x   444           8214497280       0.0%    100.0%      0.0%     
 flops   104 x   104 x   444           8413636608       0.0%    100.0%      0.0%     
 flops    26 x     8 x    13           8681100064       0.0%    100.0%      0.0%     
 flops    13 x     8 x    26           8681100064       0.0%    100.0%      0.0%     
 flops    52 x    96 x   128           9060679680       0.0%    100.0%      0.0%     
 flops    52 x   128 x    96           9060679680       0.0%    100.0%      0.0%     
 flops    26 x     8 x    26           9115724800       0.0%    100.0%      0.0%     
 flops    53 x    96 x   128           9234923520       0.0%    100.0%      0.0%     
 flops    53 x   128 x    96           9234923520       0.0%    100.0%      0.0%     
 flops    13 x    14 x   128           9254848512       0.0%    100.0%      0.0%     
 flops    14 x    13 x   128           9308895232       0.0%    100.0%      0.0%     
 flops    78 x    96 x   431           9423797760       0.0%    100.0%      0.0%     
 flops    78 x    96 x   432           9445662720       0.0%    100.0%      0.0%     
 flops    26 x    14 x   128           9560864768       0.0%    100.0%      0.0%     
 flops    80 x    96 x   431           9665433600       0.0%    100.0%      0.0%     
 flops    80 x    96 x   432           9687859200       0.0%    100.0%      0.0%     
 flops    78 x    96 x   444           9708042240       0.0%    100.0%      0.0%     
 flops    14 x    26 x   128           9750028288       0.0%    100.0%      0.0%     
 flops   130 x   104 x   128           9815736320       0.0%    100.0%      0.0%     
 flops   130 x   128 x   104           9815736320       0.0%    100.0%      0.0%     
 flops    80 x    96 x   444           9956966400       0.0%    100.0%      0.0%     
 flops    40 x   128 x   431          10044989440       0.0%    100.0%      0.0%     
 flops    40 x   128 x   432          10068295680       0.0%    100.0%      0.0%     
 flops    64 x   128 x   128          10083106816       0.0%    100.0%      0.0%     
 flops    40 x   128 x   444          10347970560       0.0%    100.0%      0.0%     
 flops    65 x    96 x   128          11325849600       0.0%    100.0%      0.0%     
 flops    65 x   128 x    96          11325849600       0.0%    100.0%      0.0%     
 flops    66 x   128 x    96          11500093440       0.0%    100.0%      0.0%     
 flops    66 x    96 x   128          11500093440       0.0%    100.0%      0.0%     
 flops   104 x   104 x   128          11778883584       0.0%    100.0%      0.0%     
 flops   104 x   128 x   104          11778883584       0.0%    100.0%      0.0%     
 flops    40 x    96 x   128          11816140800       0.0%    100.0%      0.0%     
 flops    40 x   128 x    96          11816140800       0.0%    100.0%      0.0%     
 flops    92 x   128 x   431          11856265216       0.0%    100.0%      0.0%     
 flops    92 x   128 x   432          11883773952       0.0%    100.0%      0.0%     
 flops    92 x   128 x   444          12213878784       0.0%    100.0%      0.0%     
 flops   118 x   104 x   431          12355645952       0.0%    100.0%      0.0%     
 flops   118 x   104 x   432          12384313344       0.0%    100.0%      0.0%     
 flops   118 x   104 x   444          12728322048       0.0%    100.0%      0.0%     
 flops    92 x    96 x   104          13024727040       0.0%    100.0%      0.0%     
 flops    92 x   104 x    96          13024727040       0.0%    100.0%      0.0%     
 flops    78 x   128 x    96          13591019520       0.0%    100.0%      0.0%     
 flops    78 x    96 x   128          13591019520       0.0%    100.0%      0.0%     
 flops    80 x    96 x   128          13939507200       0.0%    100.0%      0.0%     
 flops    80 x   128 x    96          13939507200       0.0%    100.0%      0.0%     
 flops    64 x   128 x   431          16071983104       0.0%    100.0%      0.0%     
 flops    64 x   128 x   432          16109273088       0.0%    100.0%      0.0%     
 flops    64 x   128 x   444          16556752896       0.0%    100.0%      0.0%     
 flops   130 x   128 x   431          16753418240       0.0%    100.0%      0.0%     
 flops   130 x   128 x   432          16792289280       0.0%    100.0%      0.0%     
 flops    52 x    96 x    96          16988774400       0.0%    100.0%      0.0%     
 flops    92 x   128 x   128          17099128832       0.0%    100.0%      0.0%     
 flops   130 x   128 x   444          17258741760       0.0%    100.0%      0.0%     
 flops    53 x    96 x    96          17315481600       0.0%    100.0%      0.0%     
 flops    13 x    14 x    96          17352840960       0.0%    100.0%      0.0%     
 flops    14 x    13 x    96          17454178560       0.0%    100.0%      0.0%     
 flops    32 x   104 x   104          17473118208       0.0%    100.0%      0.0%     
 flops   118 x   128 x   104          17819336704       0.0%    100.0%      0.0%     
 flops   118 x   104 x   128          17819336704       0.0%    100.0%      0.0%     
 flops    26 x    14 x    96          17926621440       0.0%    100.0%      0.0%     
 flops    14 x    26 x    96          18281303040       0.0%    100.0%      0.0%     
 flops   130 x    96 x   104          18404505600       0.0%    100.0%      0.0%     
 flops   130 x   104 x    96          18404505600       0.0%    100.0%      0.0%     
 flops    40 x    96 x   431          18834355200       0.0%    100.0%      0.0%     
 flops    40 x    96 x   432          18878054400       0.0%    100.0%      0.0%     
 flops    64 x   128 x    96          18905825280       0.0%    100.0%      0.0%     
 flops    64 x    96 x   128          18905825280       0.0%    100.0%      0.0%     
 flops    40 x    96 x   444          19402444800       0.0%    100.0%      0.0%     
 flops   104 x   128 x   431          20104101888       0.0%    100.0%      0.0%     
 flops   104 x   128 x   432          20150747136       0.0%    100.0%      0.0%     
 flops   104 x   128 x   444          20710490112       0.0%    100.0%      0.0%     
 flops    65 x    96 x    96          21235968000       0.0%    100.0%      0.0%     
 flops    66 x    96 x    96          21562675200       0.0%    100.0%      0.0%     
 flops   104 x    96 x   104          22085406720       0.0%    100.0%      0.0%     
 flops   104 x   104 x    96          22085406720       0.0%    100.0%      0.0%     
 flops    40 x    96 x    96          22155264000       0.0%    100.0%      0.0%     
 flops    92 x    96 x   431          22230497280       0.0%    100.0%      0.0%     
 flops    92 x    96 x   432          22282076160       0.0%    100.0%      0.0%     
 flops    92 x    96 x   444          22901022720       0.0%    100.0%      0.0%     
 flops    13 x    13 x   104          23844656160       0.0%    100.0%      0.0%     
 flops   130 x   128 x   128          24161812480       0.0%    100.0%      0.0%     
 flops    78 x    96 x    96          25483161600       0.0%    100.0%      0.0%     
 flops    80 x    96 x    96          26136576000       0.0%    100.0%      0.0%     
 flops    26 x    13 x   104          27803333792       0.0%    100.0%      0.0%     
 flops    13 x    26 x   104          28200902912       0.0%    100.0%      0.0%     
 flops   104 x   128 x   128          28994174976       0.0%    100.0%      0.0%     
 flops    26 x    26 x   104          29856421504       0.0%    100.0%      0.0%     
 flops    64 x    96 x   431          30134968320       0.0%    100.0%      0.0%     
 flops    64 x    96 x   432          30204887040       0.0%    100.0%      0.0%     
 flops   118 x   128 x   431          30413897728       0.0%    100.0%      0.0%     
 flops   118 x   128 x   432          30484463616       0.0%    100.0%      0.0%     
 flops    64 x    96 x   444          31043911680       0.0%    100.0%      0.0%     
 flops   118 x   128 x   444          31331254272       0.0%    100.0%      0.0%     
 flops   130 x    96 x   431          31412659200       0.0%    100.0%      0.0%     
 flops   130 x    96 x   432          31485542400       0.0%    100.0%      0.0%     
 flops    14 x    32 x    14          31806867456       0.0%    100.0%      0.0%     
 flops    92 x    96 x   128          32060866560       0.0%    100.0%      0.0%     
 flops    92 x   128 x    96          32060866560       0.0%    100.0%      0.0%     
 flops   130 x    96 x   444          32360140800       0.0%    100.0%      0.0%     
 flops   118 x    96 x   104          33411256320       0.0%    100.0%      0.0%     
 flops   118 x   104 x    96          33411256320       0.0%    100.0%      0.0%     
 flops    64 x    96 x    96          35448422400       0.0%    100.0%      0.0%     
 flops   104 x    96 x   431          37695191040       0.0%    100.0%      0.0%     
 flops   104 x    96 x   432          37782650880       0.0%    100.0%      0.0%     
 flops   104 x    96 x   444          38832168960       0.0%    100.0%      0.0%     
 flops    32 x   128 x   104          43010752512       0.0%    100.0%      0.0%     
 flops    32 x   104 x   128          43010752512       0.0%    100.0%      0.0%     
 flops   118 x   128 x   128          43862982656       0.0%    100.0%      0.0%     
 flops   130 x    96 x   128          45303398400       0.0%    100.0%      0.0%     
 flops   130 x   128 x    96          45303398400       0.0%    100.0%      0.0%     
 flops   104 x    96 x   128          54364078080       0.0%    100.0%      0.0%     
 flops   104 x   128 x    96          54364078080       0.0%    100.0%      0.0%     
 flops   118 x    96 x   431          57026058240       0.0%    100.0%      0.0%     
 flops   118 x    96 x   432          57158369280       0.0%    100.0%      0.0%     
 flops    13 x    13 x   128          58694538240       0.0%    100.0%      0.0%     
 flops   118 x    96 x   444          58746101760       0.0%    100.0%      0.0%     
 flops    92 x    96 x    96          60114124800       0.0%    100.0%      0.0%     
 flops    26 x    13 x   128          68438975488       0.0%    100.0%      0.0%     
 flops    32 x   104 x   431          68557052928       0.0%    100.0%      0.0%     
 flops    32 x   104 x   432          68716118016       0.0%    100.0%      0.0%     
 flops    13 x    26 x   128          69417607168       0.0%    100.0%      0.0%     
 flops    32 x   104 x   444          70624899072       0.0%    100.0%      0.0%     
 flops    26 x    26 x   128          73492729856       0.0%    100.0%      0.0%     
 flops    32 x    96 x   104          80645160960       0.0%    100.0%      0.0%     
 flops    32 x   104 x    96          80645160960       0.0%    100.0%      0.0%     
 flops   118 x   128 x    96          82243092480       0.0%    100.0%      0.0%     
 flops   118 x    96 x   128          82243092480       0.0%    100.0%      0.0%     
 flops   130 x    96 x    96          84943872000       0.0%    100.0%      0.0%     
 flops   104 x    96 x    96         101932646400       0.0%    100.0%      0.0%     
 flops    32 x   128 x   128         105872621568       0.0%    100.0%      0.0%     
 flops    13 x    13 x    96         110052259200       0.0%    100.0%      0.0%     
 flops    13 x    32 x    14         120692196352       0.0%    100.0%      0.0%     
 flops    14 x    32 x    13         120692196352       0.0%    100.0%      0.0%     
 flops    26 x    32 x    14         126343945728       0.0%    100.0%      0.0%     
 flops    14 x    32 x    26         126343945728       0.0%    100.0%      0.0%     
 flops    26 x    13 x    96         128323079040       0.0%    100.0%      0.0%     
 flops    13 x    26 x    96         130158013440       0.0%    100.0%      0.0%     
 flops    26 x    26 x    96         137798868480       0.0%    100.0%      0.0%     
 flops   118 x    96 x    96         154205798400       0.0%    100.0%      0.0%     
 flops    32 x   128 x   431         168755822592       0.0%    100.0%      0.0%     
 flops    32 x   128 x   432         169147367424       0.0%    100.0%      0.0%     
 flops    32 x   128 x   444         173845905408       0.0%    100.0%      0.0%     
 flops    32 x   128 x    96         198511165440       0.0%    100.0%      0.0%     
 flops    32 x    96 x   128         198511165440       0.0%    100.0%      0.0%     
 flops    32 x    96 x   431         316417167360       0.0%    100.0%      0.0%     
 flops    32 x    96 x   432         317151313920       0.0%    100.0%      0.0%     
 flops    32 x    96 x   444         325961072640       0.0%    100.0%      0.0%     
 flops    32 x    96 x    96         372208435200       0.0%    100.0%      0.0%     
 flops    13 x    32 x    13         748947949568       0.0%    100.0%      0.0%     
 flops    26 x    32 x    13         902834406656       0.0%    100.0%      0.0%     
 flops    13 x    32 x    26         902834406656       0.0%    100.0%      0.0%     
 flops    26 x    32 x    26         948035379200       0.0%    100.0%      0.0%     
 flops inhomo. stacks               6503190415680     100.0%      0.0%      0.0%
 flops total                        17.528469E+12      37.1%     62.9%      0.0%
 flops max/rank                    736.021664E+09      39.1%     60.9%      0.0%
 matmuls inhomo. stacks                   1185516     100.0%      0.0%      0.0%
 matmuls total                          237843272       0.5%     99.5%      0.0%
 number of processed stacks              11243625      10.5%     89.5%      0.0%
 average stack size                                     1.0      23.5       0.0
 marketing flops                    20.058955E+12
 -------------------------------------------------------------------------------
 # multiplications                           3087
 max memory usage/rank             909.815808E+06
 # max total images/rank                        2
 # max 3D layers                                1
 # MPI messages exchanged                 1284192
 MPI messages size (bytes):
  total size                       634.529710E+09
  min size                           0.000000E+00
  max size                           3.157720E+06
  average size                     494.108125E+03
 MPI breakdown and total messages size (bytes):
             size <=      128                1752                        0
       128 < size <=     8192                   0                        0
      8192 < size <=    32768                  72                  1921536
     32768 < size <=   131072              367488              32412441600
    131072 < size <=  4194304              914880             602125394528
   4194304 < size <= 16777216                   0                        0
  16777216 < size                               0                        0
 -------------------------------------------------------------------------------

 *** WARNING in dbcsr_mm.F:301 :: Using a non-square number of MPI ranks ***
 *** might lead to poor performance. Used ranks: 32 Suggested: 36 64     ***

 -------------------------------------------------------------------------------
 -                                                                             -
 -                      DBCSR MESSAGE PASSING PERFORMANCE                      -
 -                                                                             -
 -------------------------------------------------------------------------------
 ROUTINE             CALLS      AVE VOLUME [Bytes]
 MP_Bcast              304                     12.
 MP_Allreduce        17299                     29.
 MP_Alltoall          9991                  56716.
 MP_ISend            96126                 226577.
 MP_IRecv            96126                 222404.
 -------------------------------------------------------------------------------

 -------------------------------------------------------------------------------
 -                                                                             -
 -                                DBM STATISTICS                               -
 -                                                                             -
 -------------------------------------------------------------------------------
    M  x    N  x    K                                          COUNT     PERCENT
 -------------------------------------------------------------------------------

 -------------------------------------------------------------------------------
 -                                                                             -
 -                                GRID STATISTICS                              -
 -                                                                             -
 -------------------------------------------------------------------------------
 LP    KERNEL             BACKEND                              COUNT     PERCENT
 5     collocate general  CPU                               18274176      24.37%
 5     integrate general  CPU                               18147272      24.20%
 4     collocate general  CPU                               11269152      15.03%
 4     integrate general  CPU                               11190894      14.92%
 6     collocate general  CPU                                7945920      10.60%
 6     integrate general  CPU                                7890740      10.52%
 8     integrate general  CPU                                 126904       0.17%
 7     integrate general  CPU                                  78258       0.10%
 9     integrate general  CPU                                  55180       0.07%
 0     collocate general  CPU                                   6720       0.01%
 3     integrate general  CPU                                   6720       0.01%
 -------------------------------------------------------------------------------

 MEMORY| Estimated peak process memory [MiB]                                 868

 -------------------------------------------------------------------------------
 -                                                                             -
 -                         MESSAGE PASSING PERFORMANCE                         -
 -                                                                             -
 -------------------------------------------------------------------------------

 ROUTINE             CALLS      AVE VOLUME [Bytes]
 MP_Group                5
 MP_Bcast            10120                 108726.
 MP_Allreduce        26629                   1157.
 MP_Sync               125
 MP_Alltoall          3764               15481308.
 MP_SendRecv         13392                  90880.
 MP_ISendRecv        13392                  90880.
 MP_Wait             38532
 MP_ISend            22540                 335266.
 MP_IRecv            22540                 335266.
 -------------------------------------------------------------------------------


 -------------------------------------------------------------------------------
 -                                                                             -
 -                           R E F E R E N C E S                               -
 -                                                                             -
 -------------------------------------------------------------------------------
 
 CP2K version 2024.3, the CP2K developers group (2024).
 CP2K is freely available from https://www.cp2k.org/ .
 
 T. D. Kuehne, M. Iannuzzi, M. Del Ben, V. V. Rybkin, P. Seewald, F. Stein, T. 
 Laino, R. Z. Khaliullin, O. Schuett, F. Schiffmann, D. Golze, J. Wilhelm, S. 
 Chulkov, M. H. Bani-Hashemian, V. Weber, U. Borstnik, M. Taillefumier, A. S. 
 Jakobovits, A. Lazzaro, H. Pabst, T. Mueller, R. Schade, M. Guidon, S. 
 Andermatt, N. Holmberg, G. K. Schenter, A. Hehn, A. Bussy, F. Belleflamme, G. 
 Tabacchi, A. Gloess, M. Lass, I. Bethune, C. J. Mundy, C. Plessl, M. Watkins, 
 J. VandeVondele, M. Krack, J. Hutter.
 J. Chem. Phys. 152, 194103 (2020).
 CP2K: An electronic structure and molecular dynamics software package - 
 Quickstep: Efficient and accurate electronic structure calculations.
 https://doi.org/10.1063/5.0007045

 O. Schuett, P. Messmer, J. Hutter, J. VandeVondele.
 Electronic Structure Calculations on Graphics Processing Units, 173-190 (2016).
 GPU-Accelerated Sparse Matrix-Matrix Multiplication for Linear Scaling Density 
 Functional Theory.
 https://doi.org/10.1002/9781118670712.ch8

 A. Heinecke, G. Henry, M. Hutchinson, H. Pabst.
 Proceedings of Intl. Supercomputing Conference, 981-991 (2016).
 LIBXSMM: Accelerating Small Matrix Multiplications by Runtime Code Generation.
 https://doi.org/10.1109/SC.2016.83

 J. Hutter, M. Iannuzzi, F. Schiffmann, J. VandeVondele.
 WIREs Comput Mol Sci. 4, 15-25 (2014).
 CP2K: atomistic simulations of condensed matter systems.
 https://doi.org/10.1002/wcms.1159

 U. Borstnik, J. VandeVondele, V. Weber, J. Hutter.
 Parallel Comput. 40, 47-58 (2014).
 Sparse matrix multiplication: The distributed block-compressed sparse row 
 library.
 https://doi.org/10.1016/j.parco.2014.03.012

 A. Marek, V. Blum, R. Johanni, V. Havu, B. Lang, T. Auckenthaler, A. Heinecke, 
 H. Bungartz, H. Lederer.
 J. Phys. Condens. Matter 26, 213201 (2014).
 The ELPA library: scalable parallel eigenvalue solutions for electronic 
 structure theory and computational science.
 https://doi.org/10.1088/0953-8984/26/21/213201

 J. P. Perdew, A. Ruzsinszky, G. I. Csonka, O. A. Vydrov, G. E. Scuseria, L. A. 
 Constantin, X. Zhou, K. Burke.
 Phys. Rev. Lett. 100, 136406-136409 (2008).
 Restoring the Density-Gradient Expansion for Exchange in Solids and Surfaces.
 https://doi.org/10.1103/PhysRevLett.100.136406

 J. VandeVondele, J. Hutter.
 J. Chem. Phys. 127, 114105 (2007).
 Gaussian basis sets for accurate calculations on molecular systems in gas and 
 condensed phases.
 https://doi.org/10.1063/1.2770708

 J. VandeVondele, M. Krack, F. Mohamed, M. Parrinello, T. Chassaing, J. Hutter.
 Comput. Phys. Commun. 167, 103-128 (2005).
 QUICKSTEP: Fast and accurate density functional calculations using a mixed 
 Gaussian and plane waves approach.
 https://doi.org/10.1016/j.cpc.2004.12.014

 M. Krack.
 Theor. Chem. Acc. 114, 145-152 (2005).
 Pseudopotentials for H to Kr optimized for gradient-corrected 
 exchange-correlation functionals.
 https://doi.org/10.1007/s00214-005-0655-y

 M. Frigo, S. G. Johnson.
 Proc. IEEE 93, 216-231 (2005).
 The design and implementation of FFTW3.
 https://doi.org/10.1109/JPROC.2004.840301

 J. VandeVondele, J. Hutter.
 J. Chem. Phys. 118, 4365-4369 (2003).
 An efficient orbital transformation method for electronic structure 
 calculations.
 https://doi.org/10.1063/1.1543154

 C. Hartwigsen, S. Goedecker, J. Hutter.
 Phys. Rev. B 58, 3641-3662 (1998).
 Relativistic separable dual-space Gaussian pseudopotentials from H to Rn.
 https://doi.org/10.1103/PhysRevB.58.3641

 G. Lippert, J. Hutter, M. Parrinello.
 Mol. Phys. 92, 477-487 (1997).
 A hybrid Gaussian and plane wave density functional scheme.
 https://doi.org/10.1080/002689797170220

 S. Goedecker, M. Teter, J. Hutter.
 Phys. Rev. B 54, 1703-1710 (1996).
 Separable dual-space Gaussian pseudopotentials.
 https://doi.org/10.1103/PhysRevB.54.1703

 J. P. Perdew, K. Burke, M. Ernzerhof.
 Phys. Rev. Lett. 77, 3865-3868 (1996).
 Generalized gradient approximation made simple.
 https://doi.org/10.1103/PhysRevLett.77.3865


 -------------------------------------------------------------------------------
 -                                                                             -
 -                                T I M I N G                                  -
 -                                                                             -
 -------------------------------------------------------------------------------
 SUBROUTINE                       CALLS  ASD         SELF TIME        TOTAL TIME
                                MAXIMUM       AVERAGE  MAXIMUM  AVERAGE  MAXIMUM
 CP2K                                 1  1.0    1.319    1.322  145.692  145.693
 qs_forces                            1  2.0    0.001    0.001  143.829  143.830
 qs_energies                          1  3.0    0.001    0.001  138.771  138.773
 scf_env_do_scf                       1  4.0    0.000    0.001  137.189  137.191
 scf_env_do_scf_inner_loop          143  5.0    0.004    0.015  134.027  134.029
 rebuild_ks_matrix                  144  7.0    0.001    0.001   68.347   68.541
 qs_ks_build_kohn_sham_matrix       144  8.0    0.024    0.026   68.346   68.541
 qs_ks_update_qs_env                146  6.0    0.002    0.002   67.079   67.265
 qs_rho_update_rho_low              144  6.0    0.001    0.001   40.029   40.047
 calculate_rho_elec                 144  7.0    0.431    0.461   40.028   40.046
 sum_up_and_integrate               144  9.0    0.003    0.003   37.567   37.594
 integrate_v_rspace                 144 10.0    0.005    0.006   37.500   37.523
 grid_collocate_task_list           144  8.0   29.840   30.948   29.840   30.948
 grid_integrate_task_list           144 11.0   28.573   29.949   28.573   29.949
 qs_scf_new_mos                     143  6.0    0.001    0.002   28.704   28.823
 qs_scf_loop_do_ot                  143  7.0    0.001    0.001   28.703   28.821
 ot_scf_mini                        143  8.0    0.004    0.005   27.401   27.496
 fft_wrap_pw1pw2                   2881 11.1    0.052    0.058   26.113   26.809
 fft_wrap_pw1pw2_300               1729 12.6    2.173    2.370   24.774   25.428
 qs_vxc_create                      144  9.0    0.003    0.003   21.648   21.659
 xc_vxc_pw_create                   144 10.0    0.547    0.606   21.645   21.656
 dbcsr_multiply_generic            3087 11.1    0.139    0.147   20.664   21.051
 fft3d_ps                          2881 13.1    9.196    9.786   18.779   19.646
 xc_pw_derive                       864 12.0    0.006    0.007   14.253   15.120
 multiply_cannon                   3087 12.1    0.263    0.280   11.937   13.800
 ot_mini                            143  9.0    0.001    0.002   13.190   13.300
 multiply_cannon_loop              3087 13.1    0.176    0.189   10.094   11.792
 xc_rho_set_and_dset_create         144 11.0    0.398    0.436   11.300   11.634
 qs_ot_get_p                        146  9.0    0.001    0.002   10.872   10.947
 density_rs2pw                      144  8.0    0.007    0.008    9.391   10.559
 xc_pw_divergence                   144 11.0    0.003    0.003    9.603   10.392
 qs_ot_get_derivative               143 10.0    0.001    0.001    9.635    9.729
 multiply_cannon_multrec          24696 14.1    7.315    9.466    7.330    9.481
 mp_alltoall_z22v                  2881 15.1    7.189    9.153    7.189    9.153
 qs_ot_p2m_diag                     120 10.0    0.219    0.285    8.760    8.864
 cp_dbcsr_syevd                     120 11.0    0.009    0.009    7.810    7.815
 cp_fm_diag_elpa                    120 12.0    0.001    0.001    7.571    7.584
 cp_fm_diag_elpa_base               120 13.0    7.513    7.519    7.555    7.556
 potential_pw2rs                    144 11.0    0.030    0.033    7.337    7.353
 qs_ot_get_derivative_diag          118 11.0    0.003    0.003    5.973    6.058
 transfer_rs2pw                     721  9.0    0.011    0.014    4.784    5.936
 mp_waitany                       22540 12.5    4.237    5.563    4.237    5.563
 yz_to_x                           1009 14.1    0.874    0.995    4.324    5.527
 make_m2s                          6174 12.1    0.091    0.095    5.142    5.490
 x_to_yz                           1296 14.4    1.390    1.572    5.110    5.458
 mp_waitall_1                    213560 15.2    3.032    5.232    3.032    5.232
 transfer_pw2rs                     721 12.0    0.006    0.007    4.441    4.447
 transfer_rs2pw_300                 145 10.0    0.781    0.909    3.207    4.284
 xc_functional_eval                 144 12.0    0.002    0.003    3.679    3.936
 pbe_lda_eval                       144 13.0    3.676    3.934    3.676    3.934
 build_core_hamiltonian_matrix_       1  3.0    0.000    0.000    2.534    3.697
 calc_dipsurf_potential             144  9.0    0.512    0.555    3.612    3.694
 make_images                       6174 13.1    0.414    0.501    3.396    3.602
 ot_diis_step                       143 10.0    0.008    0.008    3.486    3.486
 init_scf_loop                        3  5.0    0.000    0.000    3.159    3.159
 build_core_ppnl_forces               1  4.0    2.053    3.154    2.053    3.154
 mp_alltoall_d11v                  2044 13.4    1.887    3.129    1.887    3.129
 mp_sum_d                          7849 11.6    2.112    3.104    2.112    3.104
 multiply_cannon_metrocomm3       24696 14.1    0.063    0.069    1.105    3.004
 -------------------------------------------------------------------------------

 The number of warnings for this run is : 1
 
 -------------------------------------------------------------------------------
  **** **** ******  **  PROGRAM ENDED AT                 2026-08-31 15:54:34.296
 ***** ** ***  *** **   PROGRAM RAN ON                                 nid001507
 **    ****   ******    PROGRAM RAN BY                                    agne_r
 ***** **    ** ** **   PROGRAM PROCESS ID                                107842
  **** **  *******  **  PROGRAM STOPPED IN /mnt/lustre/a2fs-work3/work/e89/e89/a
                                           gne_r/Crystalline_HfO2_Interfaces/Cla
                                           ude/HfO2_STO_interfaces/V4_lattice_ma
                                           tches/updated/V4_lattice_matches/STO_
                                           HfO2_m111_pbesol_matches/configs/m00_
                                           A0091_eps8p2
