 DBCSR| CPU Multiplication driver                                           XSMM (U)
 DBCSR| Multrec recursion limit                                              512 (U)
 DBCSR| Multiplication stack size                                           1000 (D)
 DBCSR| Maximum elements for images                                    UNLIMITED (U)
 DBCSR| Multiplicative factor virtual images                                   1 (U)
 DBCSR| Use multiplication densification                                       T (D)
 DBCSR| Multiplication size stacks                                             3 (U)
 DBCSR| Use memory pool for CPU allocation                                     F (U)
 DBCSR| Number of 3D layers                                               SINGLE (U)
 DBCSR| Use MPI memory allocation                                              F (U)
 DBCSR| Use RMA algorithm                                                      F (U)
 DBCSR| Use Communication thread                                               T (U)
 DBCSR| Communication thread load                                             60 (D)
 DBCSR| MPI: My process id                                                     0
 DBCSR| MPI: Number of processes                                              32
 DBCSR| OMP: Current number of threads                                         8
 DBCSR| OMP: Max number of threads                                             8
 DBCSR| Split modifier for TAS multiplication algorithm                  1.0E+00 (U)


  **** **** ******  **  PROGRAM STARTED AT               2026-08-31 15:51:37.887
 ***** ** ***  *** **   PROGRAM STARTED ON                             nid001071
 **    ****   ******    PROGRAM STARTED BY                                agne_r
 ***** **    ** ** **   PROGRAM PROCESS ID                                 98773
  **** **  *******  **  PROGRAM STARTED IN /mnt/lustre/a2fs-work3/work/e89/e89/a
                                           gne_r/Crystalline_HfO2_Interfaces/Cla
                                           ude/HfO2_STO_interfaces/V4_lattice_ma
                                           tches/updated/V4_lattice_matches/STO_
                                           HfO2_m111_pbesol_matches/configs/m04_
                                           A0137_eps2p5

 CP2K| version string:                                       CP2K version 2024.3
 CP2K| source code revision number:                                  git:6712648
 CP2K| cp2kflags: omp libint fftw3 libxc libgrpp elpa parallel scalapack cosma x
 CP2K|            smm plumed2 spglib mkl sirius libvori libbqb libvdwxc hdf5
 CP2K| is freely available from                            https://www.cp2k.org/
 CP2K| Program compiled at                       Thu 12 Sep 2024 10:20:47 AM BST
 CP2K| Program compiled on                                                  ln04
 CP2K| Program compiled for                                                local
 CP2K| Data directory path    /mnt/lustre/a2fs-work1/work/y07/shared/apps/core/c
 CP2K| Input file name                                                  cp2k.inp

 GLOBAL| Force Environment number                                              1
 GLOBAL| Basis set file name                                        BASIS_MOLOPT
 GLOBAL| Potential file name                                      GTH_POTENTIALS
 GLOBAL| MM Potential file name                                     MM_POTENTIAL
 GLOBAL| Coordinate file name                                      interface.cif
 GLOBAL| Method name                                                        CP2K
 GLOBAL| Project name                                           m04_A0137_eps2p5
 GLOBAL| Run type                                                   ENERGY_FORCE
 GLOBAL| FFT library                                                       FFTW3
 GLOBAL| Diagonalization library                                            ELPA
 GLOBAL| DGEMM library                                                      BLAS
 GLOBAL| Minimum number of eigenvectors for ELPA usage                        16
 GLOBAL| Orthonormality check for eigenvectors                          DISABLED
 GLOBAL| Matrix multiplication library                                     COSMA
 GLOBAL| All-to-all communication in single precision                          F
 GLOBAL| FFTs using library dependent lengths                                  T
 GLOBAL| Grid backend                                                       AUTO
 GLOBAL| Global print level                                                  LOW
 GLOBAL| MPI I/O enabled                                                       T
 GLOBAL| Total number of message passing processes                            32
 GLOBAL| Number of threads for this process                                    8
 GLOBAL| This output is from process                                           0
 GLOBAL| Stack size for threads created by OpenMP (OMP_STACKSIZE)        default
 GLOBAL| CPU model name                          AMD EPYC 7742 64-Core Processor
 GLOBAL| CPUID                                                              1002

 MEMORY| system memory details [Kb]
 MEMORY|                        rank 0           min           max       average
 MEMORY| MemTotal            263266872     263266840     263266872     263266856
 MEMORY| MemFree             248710136     248710136     248980412     248845274
 MEMORY| Buffers                208596        127284        208596        167940
 MEMORY| Cached                1210016       1201296       1210016       1205656
 MEMORY| Slab                  3351296       3241076       3351296       3296186
 MEMORY| SReclaimable          1419916       1410160       1419916       1415038
 MEMORY| MemLikelyFree       251548664     251548664     251719152     251633908


 GENERATE|  Preliminary Number of Bonds generated:                             0
 GENERATE|  Achieved consistency in connectivity generation.

 *******************************************************************************
 *******************************************************************************
 **                                                                           **
 **     #####                         ##              ##                      **
 **    ##   ##            ##          ##              ##                      **
 **   ##     ##                       ##            ######                    **
 **   ##     ##  ##   ##  ##   #####  ##  ##   ####   ##    #####    #####    **
 **   ##     ##  ##   ##  ##  ##      ## ##   ##      ##   ##   ##  ##   ##   **
 **   ##  ## ##  ##   ##  ##  ##      ####     ###    ##   ######   ######    **
 **    ##  ###   ##   ##  ##  ##      ## ##      ##   ##   ##       ##        **
 **     #######   #####   ##   #####  ##  ##  ####    ##    #####   ##        **
 **           ##                                                    ##        **
 **                                                                           **
 **                                                ... make the atoms dance   **
 **                                                                           **
 **            Copyright (C) by CP2K developers group (2000-2024)             **
 **                      J. Chem. Phys. 152, 194103 (2020)                    **
 **                                                                           **
 *******************************************************************************


 TOTAL NUMBERS AND MAXIMUM NUMBERS

  Total number of            - Atomic kinds:                                   4
                             - Atoms:                                        315
                             - Shell sets:                                   315
                             - Shells:                                      1863
                             - Primitive Cartesian functions:               1689
                             - Cartesian basis functions:                   5916
                             - Spherical basis functions:                   5253

  Maximum angular momentum of- Orbital basis functions:                        3
                             - Local part of the GTH pseudopotential:          2
                             - Non-local part of the GTH pseudopotential:      4


 SCF PARAMETERS         Density guess:                                    ATOMIC
                        --------------------------------------------------------
                        max_scf:                                              60
                        max_scf_history:                                       0
                        max_diis:                                              4
                        --------------------------------------------------------
                        eps_scf:                                        1.00E-06
                        eps_scf_history:                                0.00E+00
                        eps_diis:                                       1.00E-01
                        eps_eigval:                                     1.00E-05
                        --------------------------------------------------------
                        level_shift [a.u.]:                             0.000000
                        --------------------------------------------------------
                        Outer loop SCF in use 
                        No variables optimised in outer loop
                        eps_scf                                         1.00E-06
                        max_scf                                               25
                        No outer loop optimization
                        step_size                                       5.00E-01

 Number of electrons:                                                       2520
 Number of occupied orbitals:                                               1260
 Number of molecular orbitals:                                              1260

 Number of orbital functions:                                               5253
 Number of independent orbital functions:                                   5253

 Extrapolation method: initial_guess


 SCF WAVEFUNCTION OPTIMIZATION

  ----------------------------------- OT ---------------------------------------
  Minimizer      : DIIS                : direct inversion
                                         in the iterative subspace
                                         using   7 DIIS vectors
                                         safer DIIS on
  Preconditioner : FULL_SINGLE_INVERSE : inversion of 
                                         H + eS - 2*(Sc)(c^T*H*c+const)(Sc)^T
  Precond_solver : DEFAULT
  stepsize       :    0.08000000                  energy_gap     :    0.05000000
  eps_taylor     :   0.10000E-15                  max_taylor     :             4
  ----------------------------------- OT ---------------------------------------

  Step     Update method      Time    Convergence         Total energy    Change
  ------------------------------------------------------------------------------
     1 OT DIIS     0.80E-01    3.1     0.03898941     -8320.9856944517 -8.32E+03
     2 OT DIIS     0.80E-01    1.3     0.30199450     -6046.6273040843  2.27E+03
     3 OT DIIS     0.80E-01    1.3     0.02387203     -8381.9295555965 -2.34E+03
     4 OT DIIS     0.80E-01    1.3     0.00545331     -8411.8002166884 -2.99E+01
     5 OT DIIS     0.80E-01    1.3     0.00471565     -8430.5140293721 -1.87E+01
     6 OT DIIS     0.80E-01    1.2     0.00409332     -8449.2444869531 -1.87E+01
     7 OT DIIS     0.80E-01    1.3     0.00379076     -8467.7473020911 -1.85E+01
     8 OT DIIS     0.80E-01    1.2     0.00260608     -8489.9243568369 -2.22E+01
     9 OT DIIS     0.80E-01    1.2     0.00289768     -8499.8728376717 -9.95E+00
    10 OT DIIS     0.80E-01    1.2     0.00220145     -8509.4214732773 -9.55E+00
    11 OT DIIS     0.80E-01    1.2     0.00171493     -8519.2733801709 -9.85E+00
    12 OT DIIS     0.80E-01    1.2     0.00208338     -8527.9305644180 -8.66E+00
    13 OT DIIS     0.80E-01    1.2     0.00156865     -8528.6055549455 -6.75E-01
    14 OT DIIS     0.80E-01    1.2     0.00126645     -8535.9899240816 -7.38E+00
    15 OT DIIS     0.80E-01    1.1     0.00106253     -8541.0796600088 -5.09E+00
    16 OT DIIS     0.80E-01    1.1     0.00096799     -8545.5461604924 -4.47E+00
    17 OT DIIS     0.80E-01    1.2     0.00100120     -8549.7380147826 -4.19E+00
    18 OT DIIS     0.80E-01    1.1     0.00087059     -8550.8282024078 -1.09E+00
    19 OT DIIS     0.80E-01    1.1     0.00082721     -8553.8576414143 -3.03E+00
    20 OT DIIS     0.80E-01    1.2     0.00099871     -8556.8957688285 -3.04E+00
    21 OT DIIS     0.80E-01    1.2     0.00072964     -8558.3986804997 -1.50E+00
    22 OT DIIS     0.80E-01    1.1     0.00058930     -8560.9171225497 -2.52E+00
    23 OT DIIS     0.80E-01    1.3     0.00055763     -8562.0751135977 -1.16E+00
    24 OT DIIS     0.80E-01    1.2     0.00050410     -8564.1786867169 -2.10E+00
    25 OT DIIS     0.80E-01    1.2     0.00045436     -8565.9372352163 -1.76E+00
    26 OT DIIS     0.80E-01    1.1     0.00042492     -8567.0316688585 -1.09E+00
    27 OT DIIS     0.80E-01    1.1     0.00042132     -8567.4809381638 -4.49E-01
    28 OT DIIS     0.80E-01    1.1     0.00037719     -8568.4000245702 -9.19E-01
    29 OT DIIS     0.80E-01    1.2     0.00034905     -8569.4602926817 -1.06E+00
    30 OT DIIS     0.80E-01    1.1     0.00033423     -8570.2916333616 -8.31E-01
    31 OT DIIS     0.80E-01    1.1     0.00030082     -8570.8269772970 -5.35E-01
    32 OT DIIS     0.80E-01    1.1     0.00028774     -8571.3711876804 -5.44E-01
    33 OT DIIS     0.80E-01    1.1     0.00027275     -8571.7568814102 -3.86E-01
    34 OT DIIS     0.80E-01    1.1     0.00025436     -8572.2830598139 -5.26E-01
    35 OT DIIS     0.80E-01    1.1     0.00024226     -8572.7051734309 -4.22E-01
    36 OT DIIS     0.80E-01    1.1     0.00023480     -8572.9725793104 -2.67E-01
    37 OT DIIS     0.80E-01    1.1     0.00022822     -8573.1932242721 -2.21E-01
    38 OT DIIS     0.80E-01    1.1     0.00021724     -8573.4332365434 -2.40E-01
    39 OT DIIS     0.80E-01    1.1     0.00019704     -8574.0851208552 -6.52E-01
    40 OT DIIS     0.80E-01    1.1     0.00017802     -8574.3988751694 -3.14E-01
    41 OT DIIS     0.80E-01    1.1     0.00016909     -8574.6155119394 -2.17E-01
    42 OT DIIS     0.80E-01    1.1     0.00016156     -8574.7621314976 -1.47E-01
    43 OT DIIS     0.80E-01    1.1     0.00015657     -8574.9296010801 -1.67E-01
    44 OT DIIS     0.80E-01    1.2     0.00015591     -8575.0306407374 -1.01E-01
    45 OT DIIS     0.80E-01    1.1     0.00014932     -8575.1597935839 -1.29E-01
    46 OT DIIS     0.80E-01    1.1     0.00013566     -8575.4389245601 -2.79E-01
    47 OT DIIS     0.80E-01    1.1     0.00013174     -8575.5763171187 -1.37E-01
    48 OT DIIS     0.80E-01    1.1     0.00012315     -8575.7539447381 -1.78E-01
    49 OT DIIS     0.80E-01    1.1     0.00011832     -8575.8603691313 -1.06E-01
    50 OT DIIS     0.80E-01    1.1     0.00011185     -8575.9971854694 -1.37E-01
    51 OT DIIS     0.80E-01    1.1     0.00010811     -8576.0637118943 -6.65E-02
    52 OT DIIS     0.80E-01    1.1     0.00010042     -8576.2076950554 -1.44E-01
    53 OT DIIS     0.80E-01    1.1     0.00009777     -8576.2612851228 -5.36E-02
    54 OT DIIS     0.80E-01    1.1     0.00009395     -8576.3452304035 -8.39E-02
    55 OT DIIS     0.80E-01    1.1     0.00009227     -8576.3714833915 -2.63E-02
    56 OT DIIS     0.80E-01    1.1     0.00008474     -8576.5130436660 -1.42E-01
    57 OT DIIS     0.80E-01    1.1     0.00008227     -8576.5786127506 -6.56E-02
    58 OT DIIS     0.80E-01    1.1     0.00008000     -8576.6428509588 -6.42E-02
    59 OT DIIS     0.80E-01    1.1     0.00007645     -8576.6837428983 -4.09E-02
    60 OT DIIS     0.80E-01    1.1     0.00007336     -8576.7330925179 -4.93E-02

  Leaving inner SCF loop after reaching    60 steps.


  Electronic density on regular grids:      -2519.9999999887        0.0000000113
  Core density on regular grids:             2519.9999998458       -0.0000001542
  Total dipole moment perpendicular to 
  the slab [electrons-Angstroem]:               2.0355565236
  Total charge density on r-space grids:       -0.0000001428
  Total charge density g-space grids:          -0.0000001428

  Overlap energy of the core charge distribution:               0.00001344789707
  Self energy of the core charge distribution:             -17172.14560379399336
  Core Hamiltonian energy:                                   4386.78280952838213
  Hartree energy:                                            5584.97308868520759
  Exchange-correlation energy:                              -1376.34340038538153

  Total energy:                                             -8576.73309251788669

  outer SCF iter =    1 RMS gradient =   0.73E-04 energy =      -8576.7330925179

  ----------------------------------- OT ---------------------------------------
  Minimizer      : DIIS                : direct inversion
                                         in the iterative subspace
                                         using   7 DIIS vectors
                                         safer DIIS on
  Preconditioner : FULL_SINGLE_INVERSE : inversion of 
                                         H + eS - 2*(Sc)(c^T*H*c+const)(Sc)^T
  Precond_solver : DEFAULT
  stepsize       :    0.08000000                  energy_gap     :    0.05000000
  eps_taylor     :   0.10000E-15                  max_taylor     :             4
  ----------------------------------- OT ---------------------------------------

  Step     Update method      Time    Convergence         Total energy    Change
  ------------------------------------------------------------------------------
     1 OT DIIS     0.80E-01    3.4     0.00073572     -8576.7752971062 -4.22E-02
     2 OT DIIS     0.80E-01    1.2     0.00066409     -8577.0175986370 -2.42E-01
     3 OT DIIS     0.80E-01    1.2     0.00093605     -8577.1291940226 -1.12E-01
     4 OT DIIS     0.80E-01    1.2     0.00107723     -8577.2283620728 -9.92E-02
     5 OT DIIS     0.80E-01    1.2     0.00084847     -8577.3587655579 -1.30E-01
     6 OT DIIS     0.80E-01    1.2     0.00063945     -8577.4723168240 -1.14E-01
     7 OT DIIS     0.80E-01    1.2     0.00059449     -8577.5212125827 -4.89E-02
     8 OT DIIS     0.80E-01    1.2     0.00066115     -8577.5338963053 -1.27E-02
     9 OT DIIS     0.80E-01    1.2     0.00029487     -8577.5562118908 -2.23E-02
    10 OT DIIS     0.80E-01    1.2     0.00023478     -8577.5696221889 -1.34E-02
    11 OT DIIS     0.80E-01    1.2     0.00024373     -8577.5770601848 -7.44E-03
    12 OT DIIS     0.80E-01    1.2     0.00024702     -8577.5793463559 -2.29E-03
    13 OT DIIS     0.80E-01    1.1     0.00024028     -8577.5799549348 -6.09E-04
    14 OT DIIS     0.80E-01    1.1     0.00024355     -8577.5824644848 -2.51E-03
    15 OT DIIS     0.80E-01    1.2     0.00026036     -8577.5850363079 -2.57E-03
    16 OT DIIS     0.80E-01    1.1     0.00028024     -8577.5900507116 -5.01E-03
    17 OT DIIS     0.80E-01    1.2     0.00027062     -8577.5994406306 -9.39E-03
    18 OT DIIS     0.80E-01    1.1     0.00027788     -8577.6201856751 -2.07E-02
    19 OT DIIS     0.80E-01    1.1     0.00024479     -8577.6213628369 -1.18E-03
    20 OT DIIS     0.80E-01    1.1     0.00023719     -8577.6262177446 -4.85E-03
    21 OT DIIS     0.80E-01    1.1     0.00024830     -8577.6290365367 -2.82E-03
    22 OT DIIS     0.80E-01    1.1     0.00023983     -8577.6483424089 -1.93E-02
    23 OT DIIS     0.80E-01    1.1     0.00024480     -8577.6657513967 -1.74E-02
    24 OT DIIS     0.80E-01    1.2     0.00029140     -8577.6856169714 -1.99E-02
    25 OT DIIS     0.80E-01    1.1     0.00015260     -8577.7036896800 -1.81E-02
    26 OT DIIS     0.80E-01    1.1     0.00016772     -8577.7031660680  5.24E-04
    27 OT DIIS     0.80E-01    1.1     0.00018600     -8577.7046065665 -1.44E-03
    28 OT DIIS     0.80E-01    1.1     0.00012285     -8577.7089329585 -4.33E-03
    29 OT DIIS     0.80E-01    1.1     0.00010609     -8577.7110200308 -2.09E-03
    30 OT DIIS     0.80E-01    1.1     0.00008023     -8577.7157001478 -4.68E-03
    31 OT DIIS     0.80E-01    1.1     0.00006184     -8577.7178692674 -2.17E-03
    32 OT DIIS     0.80E-01    1.1     0.00008663     -8577.7178494690  1.98E-05
    33 OT DIIS     0.80E-01    1.1     0.00007781     -8577.7183286865 -4.79E-04
    34 OT DIIS     0.80E-01    1.1     0.00003628     -8577.7196227968 -1.29E-03
    35 OT DIIS     0.80E-01    1.1     0.00003147     -8577.7201585686 -5.36E-04
    36 OT DIIS     0.80E-01    1.1     0.00002854     -8577.7207539822 -5.95E-04
    37 OT DIIS     0.80E-01    1.1     0.00002304     -8577.7209973287 -2.43E-04
    38 OT DIIS     0.80E-01    1.1     0.00002155     -8577.7213832152 -3.86E-04
    39 OT DIIS     0.80E-01    1.1     0.00002001     -8577.7215677744 -1.85E-04
    40 OT DIIS     0.80E-01    1.1     0.00001777     -8577.7217400998 -1.72E-04
    41 OT DIIS     0.80E-01    1.1     0.00002102     -8577.7218392304 -9.91E-05
    42 OT DIIS     0.80E-01    1.1     0.00001266     -8577.7218990775 -5.98E-05
    43 OT DIIS     0.80E-01    1.1     0.00001123     -8577.7219661012 -6.70E-05
    44 OT DIIS     0.80E-01    1.1     0.00000992     -8577.7220180717 -5.20E-05
    45 OT DIIS     0.80E-01    1.1     0.00000842     -8577.7220408559 -2.28E-05
    46 OT DIIS     0.80E-01    1.1     0.00000754     -8577.7220703974 -2.95E-05
    47 OT DIIS     0.80E-01    1.1     0.00000649     -8577.7220843979 -1.40E-05
    48 OT DIIS     0.80E-01    1.1     0.00000603     -8577.7220991226 -1.47E-05
    49 OT DIIS     0.80E-01    1.1     0.00000681     -8577.7221119830 -1.29E-05
    50 OT DIIS     0.80E-01    1.1     0.00000533     -8577.7221147634 -2.78E-06
    51 OT DIIS     0.80E-01    1.1     0.00000462     -8577.7221248170 -1.01E-05
    52 OT DIIS     0.80E-01    1.1     0.00000430     -8577.7221328235 -8.01E-06
    53 OT DIIS     0.80E-01    1.1     0.00000373     -8577.7221369863 -4.16E-06
    54 OT DIIS     0.80E-01    1.1     0.00000342     -8577.7221440956 -7.11E-06
    55 OT DIIS     0.80E-01    1.1     0.00000330     -8577.7221492792 -5.18E-06
    56 OT DIIS     0.80E-01    1.1     0.00000322     -8577.7221553860 -6.11E-06
    57 OT DIIS     0.80E-01    1.1     0.00000322     -8577.7221624321 -7.05E-06
    58 OT DIIS     0.80E-01    1.1     0.00000305     -8577.7221638422 -1.41E-06
    59 OT DIIS     0.80E-01    1.1     0.00000260     -8577.7221690755 -5.23E-06
    60 OT DIIS     0.80E-01    1.1     0.00000242     -8577.7221738759 -4.80E-06

  Leaving inner SCF loop after reaching    60 steps.


  Electronic density on regular grids:      -2519.9999999887        0.0000000113
  Core density on regular grids:             2519.9999998458       -0.0000001542
  Total dipole moment perpendicular to 
  the slab [electrons-Angstroem]:               2.6820889143
  Total charge density on r-space grids:       -0.0000001428
  Total charge density g-space grids:          -0.0000001428

  Overlap energy of the core charge distribution:               0.00001344789707
  Self energy of the core charge distribution:             -17172.14560379399336
  Core Hamiltonian energy:                                   4384.52008150843358
  Hartree energy:                                            5586.34359682122067
  Exchange-correlation energy:                              -1376.44026185948906

  Total energy:                                             -8577.72217387593082

  outer SCF iter =    2 RMS gradient =   0.24E-05 energy =      -8577.7221738759

  ----------------------------------- OT ---------------------------------------
  Minimizer      : DIIS                : direct inversion
                                         in the iterative subspace
                                         using   7 DIIS vectors
                                         safer DIIS on
  Preconditioner : FULL_SINGLE_INVERSE : inversion of 
                                         H + eS - 2*(Sc)(c^T*H*c+const)(Sc)^T
  Precond_solver : DEFAULT
  stepsize       :    0.08000000                  energy_gap     :    0.05000000
  eps_taylor     :   0.10000E-15                  max_taylor     :             4
  ----------------------------------- OT ---------------------------------------

  Step     Update method      Time    Convergence         Total energy    Change
  ------------------------------------------------------------------------------
     1 OT DIIS     0.80E-01    3.2     0.00000475     -8577.7221763766 -2.50E-06
     2 OT DIIS     0.80E-01    1.1     0.00000496     -8577.7221861361 -9.76E-06
     3 OT DIIS     0.80E-01    1.1     0.00000434     -8577.7221897336 -3.60E-06
     4 OT DIIS     0.80E-01    1.1     0.00000464     -8577.7222066133 -1.69E-05
     5 OT DIIS     0.80E-01    1.1     0.00000127     -8577.7222100155 -3.40E-06
     6 OT DIIS     0.80E-01    1.1     0.00000102     -8577.7222103264 -3.11E-07
     7 OT DIIS     0.80E-01    1.0     0.00000094     -8577.7222109274 -6.01E-07

  *** SCF run converged in     7 steps ***


  Electronic density on regular grids:      -2519.9999999886        0.0000000114
  Core density on regular grids:             2519.9999998458       -0.0000001542
  Total dipole moment perpendicular to 
  the slab [electrons-Angstroem]:               2.6824203765
  Total charge density on r-space grids:       -0.0000001428
  Total charge density g-space grids:          -0.0000001428

  Overlap energy of the core charge distribution:               0.00001344789707
  Self energy of the core charge distribution:             -17172.14560379399336
  Core Hamiltonian energy:                                   4384.52004973809835
  Hartree energy:                                            5586.34362372161104
  Exchange-correlation energy:                              -1376.44029404102275

  Total energy:                                             -8577.72221092740983

  outer SCF iter =    3 RMS gradient =   0.94E-06 energy =      -8577.7222109274
  outer SCF loop converged in   3 iterations or  127 steps


 ENERGY| Total FORCE_EVAL ( QS ) energy [a.u.]:            -8577.722211493943178

 ATOMIC FORCES in [a.u.]

 # Atom   Kind   Element          X              Y              Z
      1      1      Sr          0.00000458    -0.00000479     0.02968707
      2      1      Sr          0.00000040    -0.00000074     0.02969338
      3      1      Sr         -0.00000558     0.00000642     0.02969463
      4      1      Sr         -0.00000575     0.00000534     0.02969429
      5      1      Sr          0.00000863    -0.00000044     0.02969747
      6      1      Sr          0.00000462    -0.00000396     0.02969750
      7      1      Sr          0.00000127    -0.00000094     0.02969370
      8      1      Sr         -0.00000904     0.00000962     0.02969746
      9      1      Sr          0.00000124    -0.00000797     0.02969778
     10      1      Sr          0.00004417    -0.00003875     0.00289579
     11      1      Sr         -0.00002276     0.00002186     0.00288272
     12      1      Sr         -0.00002060     0.00001947     0.00293266
     13      1      Sr         -0.00002020     0.00001896     0.00293275
     14      1      Sr          0.00004851    -0.00003427     0.00288678
     15      1      Sr         -0.00001873     0.00001780     0.00287939
     16      1      Sr         -0.00002299     0.00002021     0.00288280
     17      1      Sr         -0.00002473     0.00002385     0.00292980
     18      1      Sr          0.00004007    -0.00004163     0.00288671
     19      1      Sr          0.00181716    -0.00032119     0.01529218
     20      1      Sr         -0.00093757     0.00072169     0.01379329
     21      1      Sr         -0.00078957     0.00009608     0.01552337
     22      1      Sr         -0.00078578     0.00009779     0.01552293
     23      1      Sr          0.00182321    -0.00031407     0.01529613
     24      1      Sr         -0.00093140     0.00071255     0.01379533
     25      1      Sr         -0.00094065     0.00071696     0.01379357
     26      1      Sr         -0.00079534     0.00010505     0.01552479
     27      1      Sr          0.00181177    -0.00032587     0.01529652
     28      2      Hf          0.03055131     0.00713913    -0.04737568
     29      2      Hf          0.03059783     0.00710873    -0.04739478
     30      2      Hf          0.03057316     0.00712566    -0.04736512
     31      2      Hf         -0.03913021     0.00531951    -0.00357214
     32      2      Hf         -0.03909118     0.00527518    -0.00357411
     33      2      Hf         -0.03924285     0.00515724    -0.00367557
     34      2      Hf         -0.05723805    -0.07591001     0.03213812
     35      2      Hf         -0.05715021    -0.07597058     0.03209224
     36      2      Hf         -0.05719739    -0.07595607     0.03212189
     37      2      Hf          0.10378471     0.08460386     0.01535489
     38      2      Hf          0.10386914     0.08467348     0.01533804
     39      2      Hf          0.10382372     0.08462258     0.01526426
     40      2      Hf          0.01306464    -0.00724805    -0.02979508
     41      2      Hf          0.01288060    -0.00716363    -0.02971879
     42      2      Hf          0.01307943    -0.00719606    -0.02984134
     43      2      Hf         -0.00703391     0.00234521     0.04094696
     44      2      Hf         -0.00699585     0.00236975     0.04075887
     45      2      Hf         -0.00693940     0.00246699     0.04080355
     46      2      Hf         -0.09244928    -0.09764505     0.03026519
     47      2      Hf         -0.09241554    -0.09759210     0.03009880
     48      2      Hf         -0.09247600    -0.09765376     0.03007022
     49      2      Hf          0.08892676     0.09890387    -0.03658513
     50      2      Hf          0.08897219     0.09885410    -0.03655936
     51      2      Hf          0.08882052     0.09881321    -0.03644376
     52      2      Hf          0.01189881    -0.00561502    -0.03607306
     53      2      Hf          0.01187130    -0.00555368    -0.03595055
     54      2      Hf          0.01189284    -0.00570777    -0.03609432
     55      2      Hf         -0.01184203     0.00570074     0.03595114
     56      2      Hf         -0.01195433     0.00577965     0.03603541
     57      2      Hf         -0.01190774     0.00563704     0.03595288
     58      2      Hf         -0.09070145    -0.09715308     0.03098499
     59      2      Hf         -0.09088499    -0.09708999     0.03110189
     60      2      Hf         -0.09089193    -0.09702178     0.03108302
     61      2      Hf          0.09086450     0.09716664    -0.03101961
     62      2      Hf          0.09090309     0.09711132    -0.03096396
     63      2      Hf          0.09080754     0.09713820    -0.03100671
     64      2      Hf          0.00724347    -0.00251588    -0.03969158
     65      2      Hf          0.00731554    -0.00259993    -0.03971641
     66      2      Hf          0.00726888    -0.00257207    -0.03969633
     67      2      Hf         -0.01327287     0.00719415     0.02967801
     68      2      Hf         -0.01314657     0.00716248     0.02960362
     69      2      Hf         -0.01324494     0.00712921     0.02963701
     70      2      Hf         -0.08902405    -0.09899066     0.03617321
     71      2      Hf         -0.08891092    -0.09890256     0.03618107
     72      2      Hf         -0.08896073    -0.09887049     0.03616896
     73      2      Hf          0.09240825     0.09746305    -0.03052257
     74      2      Hf          0.09238802     0.09740314    -0.03043439
     75      2      Hf          0.09232536     0.09742433    -0.03041105
     76      2      Hf          0.03912560    -0.01045309     0.00289641
     77      2      Hf          0.03899435    -0.01044343     0.00301955
     78      2      Hf          0.03904542    -0.01051276     0.00295091
     79      2      Hf         -0.02559765    -0.00738387     0.03701488
     80      2      Hf         -0.02575330    -0.00734701     0.03702058
     81      2      Hf         -0.02569816    -0.00731882     0.03699079
     82      2      Hf         -0.10454668    -0.08381573    -0.00934973
     83      2      Hf         -0.10449326    -0.08389065    -0.00930534
     84      2      Hf         -0.10446070    -0.08387312    -0.00929570
     85      2      Hf          0.06280704     0.07852658    -0.03511222
     86      2      Hf          0.06282669     0.07852862    -0.03514170
     87      2      Hf          0.06280021     0.07847857    -0.03510910
     88      3      Ti         -0.00005482    -0.00008725    -0.01607133
     89      3      Ti         -0.00007163    -0.00000559    -0.01622003
     90      3      Ti         -0.00009070     0.00008356    -0.01606118
     91      3      Ti         -0.00001938    -0.00005524    -0.01606175
     92      3      Ti          0.00001688    -0.00001883    -0.01607522
     93      3      Ti         -0.00000333     0.00006397    -0.01621966
     94      3      Ti          0.00007084    -0.00007781    -0.01621876
     95      3      Ti          0.00004997     0.00001601    -0.01606283
     96      3      Ti          0.00009084     0.00005135    -0.01607198
     97      3      Ti          0.00019402    -0.00034899    -0.00245841
     98      3      Ti         -0.00029100     0.00020195    -0.00287969
     99      3      Ti         -0.00013623     0.00002494    -0.00046445
    100      3      Ti         -0.00006949    -0.00010551    -0.00046376
    101      3      Ti          0.00026128    -0.00028174    -0.00245589
    102      3      Ti         -0.00022637     0.00026540    -0.00288034
    103      3      Ti         -0.00015791     0.00013490    -0.00288235
    104      3      Ti         -0.00000415    -0.00004127    -0.00046144
    105      3      Ti          0.00032873    -0.00021604    -0.00245800
    106      3      Ti          0.00073933    -0.01897245    -0.02236604
    107      3      Ti         -0.00438220     0.01249819    -0.04358110
    108      3      Ti          0.00126695     0.01354313    -0.04065078
    109      3      Ti          0.00132664     0.01342440    -0.04065234
    110      3      Ti          0.00080325    -0.01890806    -0.02236728
    111      3      Ti         -0.00431653     0.01255930    -0.04358088
    112      3      Ti         -0.00425099     0.01242723    -0.04357751
    113      3      Ti          0.00139404     0.01348241    -0.04064691
    114      3      Ti          0.00086553    -0.01883784    -0.02236303
    115      4      O          -0.00118129     0.00000245    -0.00104193
    116      4      O          -0.00093174    -0.00102716    -0.00110532
    117      4      O          -0.00092735     0.00103081    -0.00110705
    118      4      O           0.00000432    -0.00002921    -0.00110936
    119      4      O          -0.00000142    -0.00093216    -0.00115004
    120      4      O          -0.00000058     0.00096881    -0.00114028
    121      4      O           0.00117708     0.00003488    -0.00103189
    122      4      O           0.00093299    -0.00108891    -0.00110700
    123      4      O           0.00092760     0.00106116    -0.00111515
    124      4      O          -0.00002808    -0.00117923    -0.00101880
    125      4      O           0.00003231    -0.00000633    -0.00109460
    126      4      O          -0.00000299     0.00118284    -0.00102995
    127      4      O          -0.00106031    -0.00092939    -0.00110363
    128      4      O          -0.00096592     0.00000179    -0.00112725
    129      4      O          -0.00102667     0.00092554    -0.00109268
    130      4      O           0.00108933    -0.00093762    -0.00109265
    131      4      O           0.00093563     0.00000253    -0.00113811
    132      4      O           0.00103042     0.00093223    -0.00109226
    133      4      O          -0.00100527    -0.00099780    -0.01618260
    134      4      O          -0.00086429     0.00000356    -0.01600041
    135      4      O          -0.00099735     0.00100071    -0.01617665
    136      4      O           0.00000417    -0.00086529    -0.01603582
    137      4      O          -0.00000395     0.00000379    -0.01595537
    138      4      O           0.00000009     0.00086841    -0.01600086
    139      4      O           0.00100220    -0.00099709    -0.01614048
    140      4      O           0.00086941    -0.00000211    -0.01603625
    141      4      O           0.00099765     0.00100646    -0.01618301
    142      4      O          -0.00098063     0.00048426    -0.00067079
    143      4      O          -0.00090406    -0.00069559    -0.00068813
    144      4      O          -0.00066338     0.00024856    -0.00085144
    145      4      O           0.00014630    -0.00063873    -0.00084860
    146      4      O          -0.00007351    -0.00031698    -0.00080924
    147      4      O          -0.00009445     0.00099381    -0.00074965
    148      4      O           0.00081174     0.00019464    -0.00061128
    149      4      O           0.00095463    -0.00152969    -0.00085116
    150      4      O           0.00073518     0.00137270    -0.00074796
    151      4      O          -0.00007040    -0.00090215    -0.00034690
    152      4      O           0.00036987    -0.00010858    -0.00059800
    153      4      O          -0.00028770     0.00097180    -0.00050822
    154      4      O          -0.00117723    -0.00074626    -0.00058476
    155      4      O          -0.00086862     0.00000561    -0.00048529
    156      4      O          -0.00052006     0.00070162    -0.00060038
    157      4      O           0.00125872    -0.00091879    -0.00060012
    158      4      O           0.00051011     0.00006307    -0.00064662
    159      4      O           0.00081958     0.00081654    -0.00042361
    160      4      O          -0.00099682    -0.00091394     0.00520196
    161      4      O          -0.00082077    -0.00001183     0.00538563
    162      4      O          -0.00095553     0.00097440     0.00518842
    163      4      O           0.00001254    -0.00084325     0.00502650
    164      4      O          -0.00002821     0.00005465     0.00492577
    165      4      O           0.00002888     0.00083707     0.00538552
    166      4      O           0.00099811    -0.00098075     0.00554588
    167      4      O           0.00086209     0.00000448     0.00502754
    168      4      O           0.00094022     0.00102499     0.00520202
    169      4      O          -0.00578075    -0.00531808    -0.02443516
    170      4      O          -0.00274640     0.00734948     0.00815091
    171      4      O           0.00054336     0.00360238    -0.00086591
    172      4      O           0.00148506     0.00264183    -0.00085505
    173      4      O          -0.00469417    -0.00616457    -0.02414482
    174      4      O          -0.00178169     0.00919331     0.00826288
    175      4      O          -0.00066370     0.00833386     0.00798017
    176      4      O           0.00243059     0.00167907    -0.00087039
    177      4      O          -0.00376173    -0.00437113    -0.02426540
    178      4      O          -0.00464435     0.00107116     0.00737510
    179      4      O           0.00280662    -0.00366611     0.00544907
    180      4      O           0.00207561    -0.00247822     0.00577881
    181      4      O           0.00110185    -0.00456540     0.00594555
    182      4      O          -0.00549722     0.00218665     0.00765418
    183      4      O           0.00183117    -0.00271869     0.00543649
    184      4      O           0.00377686    -0.00462792     0.00544022
    185      4      O           0.00292318    -0.00359281     0.00605562
    186      4      O          -0.00366234     0.00315059     0.00754344
    187      4      O          -0.00094137     0.00118022     0.01548622
    188      4      O          -0.00058750    -0.00031883     0.01571176
    189      4      O          -0.00085940    -0.00009454     0.01270326
    190      4      O           0.00004492    -0.00181732     0.01276562
    191      4      O          -0.00004337     0.00208300     0.01560351
    192      4      O           0.00022043     0.00049089     0.01571133
    193      4      O           0.00112970    -0.00122689     0.01565124
    194      4      O           0.00084779    -0.00100619     0.01276343
    195      4      O           0.00085754     0.00298544     0.01548602
    196      4      O          -0.03837347     0.04036707     0.01460867
    197      4      O          -0.03777381     0.03910102     0.01459399
    198      4      O          -0.03945933     0.04116280     0.01462930
    199      4      O           0.05570354    -0.04391472     0.01469330
    200      4      O           0.05509487    -0.04389600     0.01489118
    201      4      O           0.05396991    -0.04567843     0.01472304
    202      4      O          -0.01048155     0.00996717     0.04062604
    203      4      O          -0.00934339     0.01162279     0.04076795
    204      4      O          -0.01120713     0.01009926     0.04091473
    205      4      O          -0.06072584    -0.05904022    -0.02536927
    206      4      O          -0.06194603    -0.05808822    -0.02538445
    207      4      O          -0.06251193    -0.05748168    -0.02538629
    208      4      O          -0.01548206     0.03396790    -0.02674276
    209      4      O          -0.01749906     0.03205654    -0.02664051
    210      4      O          -0.01622037     0.03336631    -0.02644328
    211      4      O           0.00157389     0.00140079    -0.00447735
    212      4      O           0.00358984     0.00005069    -0.00446529
    213      4      O           0.00276652    -0.00060091    -0.00446114
    214      4      O          -0.06432864     0.02120057     0.00026105
    215      4      O          -0.06263687     0.02117868     0.00019755
    216      4      O          -0.06291538     0.01952023     0.00009788
    217      4      O           0.01116653    -0.03012635     0.01918604
    218      4      O           0.00928141    -0.03114990     0.01907935
    219      4      O           0.01075975    -0.02926096     0.01904805
    220      4      O          -0.03441053     0.02282673    -0.00984759
    221      4      O          -0.03460732     0.02461515    -0.00976248
    222      4      O          -0.03290482     0.02335060    -0.00993567
    223      4      O           0.03266948    -0.02307238     0.00640389
    224      4      O           0.03407262    -0.02403740     0.00628962
    225      4      O           0.03466138    -0.02209275     0.00633023
    226      4      O           0.05859613     0.03900299     0.03238450
    227      4      O           0.05774486     0.03716012     0.03226472
    228      4      O           0.05956193     0.03759740     0.03214799
    229      4      O          -0.05460463    -0.03951507    -0.01414459
    230      4      O          -0.05315569    -0.03951322    -0.01414929
    231      4      O          -0.05318438    -0.04105837    -0.01417093
    232      4      O          -0.01272537     0.00602490     0.00578700
    233      4      O          -0.01109906     0.00772402     0.00577447
    234      4      O          -0.01271782     0.00755505     0.00546215
    235      4      O           0.01704319    -0.01203873     0.00465737
    236      4      O           0.01496774    -0.01172316     0.00458583
    237      4      O           0.01608601    -0.01019251     0.00457307
    238      4      O          -0.00502921     0.02529054    -0.02570536
    239      4      O          -0.00696707     0.02404834    -0.02555241
    240      4      O          -0.00627773     0.02589592    -0.02541329
    241      4      O           0.00193863    -0.02447820     0.01838683
    242      4      O           0.00334885    -0.02267508     0.01841750
    243      4      O           0.00132712    -0.02436254     0.01851082
    244      4      O          -0.03525245     0.02726292    -0.00746020
    245      4      O          -0.03549291     0.02547971    -0.00773661
    246      4      O          -0.03678731     0.02587228    -0.00741841
    247      4      O           0.03687407    -0.02701453     0.00680592
    248      4      O           0.03544016    -0.02499981     0.00685688
    249      4      O           0.03525070    -0.02663931     0.00683173
    250      4      O           0.05433152     0.03987054     0.01613001
    251      4      O           0.05454700     0.04086579     0.01616278
    252      4      O           0.05282182     0.04157167     0.01624983
    253      4      O          -0.05291427    -0.04051147    -0.01569192
    254      4      O          -0.05467856    -0.04167694    -0.01568683
    255      4      O          -0.05422997    -0.04001047    -0.01564561
    256      4      O          -0.01342160     0.01032265    -0.00591045
    257      4      O          -0.01492324     0.00929796    -0.00594362
    258      4      O          -0.01303673     0.00839772    -0.00577443
    259      4      O           0.01312128    -0.00932711     0.00518112
    260      4      O           0.01497107    -0.00826292     0.00522959
    261      4      O           0.01323241    -0.01049008     0.00528723
    262      4      O          -0.00448705     0.02487179    -0.01745111
    263      4      O          -0.00278053     0.02660059    -0.01750764
    264      4      O          -0.00391744     0.02526341    -0.01784713
    265      4      O           0.00383432    -0.02429309     0.01690319
    266      4      O           0.00267360    -0.02639603     0.01687011
    267      4      O           0.00457906    -0.02593180     0.01682080
    268      4      O          -0.03479411     0.02224154    -0.00726232
    269      4      O          -0.03397684     0.02327873    -0.00699843
    270      4      O          -0.03291897     0.02426851    -0.00724897
    271      4      O           0.03310477    -0.02256894     0.00907632
    272      4      O           0.03494791    -0.02439044     0.00907316
    273      4      O           0.03447712    -0.02407514     0.00906862
    274      4      O           0.05311858     0.04054941     0.01504975
    275      4      O           0.05322874     0.04047767     0.01504316
    276      4      O           0.05475328     0.03894389     0.01507133
    277      4      O          -0.05912041    -0.03846424    -0.03065112
    278      4      O          -0.05745231    -0.03687232    -0.03064661
    279      4      O          -0.05833015    -0.03801635    -0.03070763
    280      4      O          -0.01586205     0.01078450    -0.00516730
    281      4      O          -0.01492848     0.01045647    -0.00515947
    282      4      O          -0.01675798     0.01230358    -0.00521855
    283      4      O           0.01251743    -0.00606779    -0.00639005
    284      4      O           0.01079416    -0.00817311    -0.00647320
    285      4      O           0.01263780    -0.00663496    -0.00651734
    286      4      O          -0.00171227     0.02503807    -0.01929399
    287      4      O          -0.00352207     0.02316519    -0.01928796
    288      4      O          -0.00196837     0.02345524    -0.01905740
    289      4      O           0.00603924    -0.02631434     0.02408582
    290      4      O           0.00652445    -0.02525838     0.02408901
    291      4      O           0.00461160    -0.02436907     0.02414068
    292      4      O          -0.05070129     0.03981764    -0.01341758
    293      4      O          -0.05177939     0.04018922    -0.01374443
    294      4      O          -0.05231445     0.03837848    -0.01347180
    295      4      O           0.03866207    -0.03996557    -0.01352214
    296      4      O           0.03677709    -0.03868168    -0.01357438
    297      4      O           0.03753004    -0.03789141    -0.01357484
    298      4      O           0.06323973     0.05741956     0.02665041
    299      4      O           0.06244762     0.05621661     0.02668669
    300      4      O           0.06138208     0.05802879     0.02652881
    301      4      O           0.00612792    -0.00318062    -0.02690015
    302      4      O           0.00436155    -0.00478333    -0.02688154
    303      4      O           0.00568249    -0.00458287    -0.02685120
    304      4      O          -0.00319804    -0.00198010     0.00237301
    305      4      O          -0.00375822    -0.00064104     0.00241159
    306      4      O          -0.00184290    -0.00241431     0.00232520
    307      4      O           0.02002323    -0.03543564     0.03111802
    308      4      O           0.02109990    -0.03366747     0.03113804
    309      4      O           0.01898190    -0.03403678     0.03120369
    310      4      O          -0.01046137     0.02917905    -0.01958221
    311      4      O          -0.00916085     0.02999367    -0.01955261
    312      4      O          -0.01081524     0.03108700    -0.01976859
    313      4      O           0.05796701    -0.02547197    -0.00049116
    314      4      O           0.05785010    -0.02549198    -0.00049100
    315      4      O           0.05965853    -0.02711177    -0.00047483
 SUM OF ATOMIC FORCES          -0.00062820     0.00014254    -0.02552224     0.02553037

 STRESS| Analytical stress tensor [GPa]
 STRESS|                        x                   y                   z
 STRESS|      x        4.16455189675E+00   1.60669042230E+01  -3.38888676388E+00
 STRESS|      y        1.60669042230E+01   1.29655249145E+00   6.62256540527E-01
 STRESS|      z       -3.38888676388E+00   6.62256540527E-01   2.35263923471E+00
 STRESS| 1/3 Trace                                             2.60458120763E+00
 STRESS| Determinant                                          -6.83454942559E+02

 STRESS| Eigenvectors and eigenvalues of the analytical stress tensor [GPa]
 STRESS|                        1                   2                   3
 STRESS| Eigenvalues  -1.38787752707E+01   2.57602794130E+00   1.91164909524E+01
 STRESS|      x          -0.672958169673     -0.023691328949      0.739301036658
 STRESS|      y           0.719909102797      0.208566659736      0.661990054424
 STRESS|      z          -0.169876971895      0.977721161364     -0.123301034223

 -------------------------------------------------------------------------------
 -                                                                             -
 -                                DBCSR STATISTICS                             -
 -                                                                             -
 -------------------------------------------------------------------------------
 COUNTER                                    TOTAL       BLAS       SMM       ACC
 flops    12 x    12 x   666               575424       0.0%    100.0%      0.0%     
 flops    14 x    12 x    12               653184       0.0%    100.0%      0.0%     
 flops    12 x    12 x   654              1130112       0.0%    100.0%      0.0%     
 flops    12 x    12 x   653              2256768       0.0%    100.0%      0.0%     
 flops    26 x    12 x    12              3908736       0.0%    100.0%      0.0%     
 flops    13 x    12 x    12              4515264       0.0%    100.0%      0.0%     
 flops    32 x    12 x   666             29154816       0.0%    100.0%      0.0%     
 flops    12 x    32 x   666             30689280       0.0%    100.0%      0.0%     
 flops    14 x    32 x    12             33965568       0.0%    100.0%      0.0%     
 flops    14 x    12 x    32             33965568       0.0%    100.0%      0.0%     
 flops    32 x    12 x   654             57259008       0.0%    100.0%      0.0%     
 flops    12 x    32 x   654             60272640       0.0%    100.0%      0.0%     
 flops    32 x    12 x   653            114342912       0.0%    100.0%      0.0%     
 flops    12 x    32 x   653            120360960       0.0%    100.0%      0.0%     
 flops    26 x    32 x    12            203254272       0.0%    100.0%      0.0%     
 flops    26 x    12 x    32            203254272       0.0%    100.0%      0.0%     
 flops    13 x    32 x    12            234793728       0.0%    100.0%      0.0%     
 flops    13 x    12 x    32            234793728       0.0%    100.0%      0.0%     
 flops    14 x    12 x    14            922459104       0.0%    100.0%      0.0%     
 flops    78 x   140 x   666           1890907200       0.0%    100.0%      0.0%     
 flops    78 x   140 x   140           1923230400       0.0%    100.0%      0.0%     
 flops    91 x   140 x   666           2206058400       0.0%    100.0%      0.0%     
 flops    91 x   140 x   140           2243768800       0.0%    100.0%      0.0%     
 flops   104 x   140 x   666           2521209600       0.0%    100.0%      0.0%     
 flops   104 x   140 x   140           2564307200       0.0%    100.0%      0.0%     
 flops   106 x   140 x   666           2569694400       0.0%    100.0%      0.0%     
 flops   106 x   140 x   140           2613620800       0.0%    100.0%      0.0%     
 flops    14 x    14 x   140           2738292480       0.0%    100.0%      0.0%     
 flops   130 x   140 x   666           3151512000       0.0%    100.0%      0.0%     
 flops    32 x    32 x   666           3191685120       0.0%    100.0%      0.0%     
 flops   130 x   140 x   140           3205384000       0.0%    100.0%      0.0%     
 flops    13 x    12 x    14           3472101360       0.0%    100.0%      0.0%     
 flops    14 x    12 x    13           3472101360       0.0%    100.0%      0.0%     
 flops    26 x    12 x    14           3581375616       0.0%    100.0%      0.0%     
 flops    14 x    12 x    26           3581375616       0.0%    100.0%      0.0%     
 flops    14 x    32 x    32           3622993920       0.0%    100.0%      0.0%     
 flops    78 x   140 x   654           3713673600       0.0%    100.0%      0.0%     
 flops   157 x   140 x   666           3806056800       0.0%    100.0%      0.0%     
 flops   157 x   140 x   140           3871117600       0.0%    100.0%      0.0%     
 flops    91 x   140 x   654           4332619200       0.0%    100.0%      0.0%     
 flops   104 x   140 x   654           4951564800       0.0%    100.0%      0.0%     
 flops   106 x   140 x   654           5046787200       0.0%    100.0%      0.0%     
 flops   130 x   140 x   654           6189456000       0.0%    100.0%      0.0%     
 flops    32 x    32 x   654           6268354560       0.0%    100.0%      0.0%     
 flops   144 x   140 x   666           6981811200       0.0%    100.0%      0.0%     
 flops   144 x   140 x   140           7101158400       0.0%    100.0%      0.0%     
 flops    78 x   140 x   653           7415990400       0.0%    100.0%      0.0%     
 flops   157 x   140 x   654           7474958400       0.0%    100.0%      0.0%     
 flops   156 x   140 x   666           7563628800       0.0%    100.0%      0.0%     
 flops   156 x   140 x   140           7692921600       0.0%    100.0%      0.0%     
 flops    91 x   140 x   653           8651988800       0.0%    100.0%      0.0%     
 flops   104 x   140 x   653           9887987200       0.0%    100.0%      0.0%     
 flops   106 x   140 x   653          10078140800       0.0%    100.0%      0.0%     
 flops    13 x    14 x   140          10091455920       0.0%    100.0%      0.0%     
 flops    14 x    13 x   140          10163921040       0.0%    100.0%      0.0%     
 flops    14 x    26 x   140          10377494400       0.0%    100.0%      0.0%     
 flops    26 x    14 x   140          10377800160       0.0%    100.0%      0.0%     
 flops   130 x   140 x   653          12359984000       0.0%    100.0%      0.0%     
 flops    32 x    32 x   653          12517539840       0.0%    100.0%      0.0%     
 flops   144 x   140 x   654          13712025600       0.0%    100.0%      0.0%     
 flops   156 x   140 x   654          14854694400       0.0%    100.0%      0.0%     
 flops   157 x   140 x   653          14927057600       0.0%    100.0%      0.0%     
 flops    78 x   160 x   666          15127257600       0.0%    100.0%      0.0%     
 flops    78 x   140 x   160          15385843200       0.0%    100.0%      0.0%     
 flops    78 x   160 x   140          15385843200       0.0%    100.0%      0.0%     
 flops    91 x   160 x   666          17648467200       0.0%    100.0%      0.0%     
 flops    91 x   160 x   140          17950150400       0.0%    100.0%      0.0%     
 flops    91 x   140 x   160          17950150400       0.0%    100.0%      0.0%     
 flops   104 x   160 x   666          20169676800       0.0%    100.0%      0.0%     
 flops    13 x    12 x    13          20513094264       0.0%    100.0%      0.0%     
 flops   104 x   140 x   160          20514457600       0.0%    100.0%      0.0%     
 flops   104 x   160 x   140          20514457600       0.0%    100.0%      0.0%     
 flops   106 x   160 x   666          20557555200       0.0%    100.0%      0.0%     
 flops   170 x   140 x   666          20606040000       0.0%    100.0%      0.0%     
 flops   106 x   140 x   160          20908966400       0.0%    100.0%      0.0%     
 flops   106 x   160 x   140          20908966400       0.0%    100.0%      0.0%     
 flops   170 x   140 x   140          20958280000       0.0%    100.0%      0.0%     
 flops    26 x    32 x    32          21680455680       0.0%    100.0%      0.0%     
 flops    14 x    14 x   160          21906339840       0.0%    100.0%      0.0%     
 flops    64 x   140 x   140          21997158400       0.0%    100.0%      0.0%     
 flops   183 x   140 x   666          22181796000       0.0%    100.0%      0.0%     
 flops   183 x   140 x   140          22560972000       0.0%    100.0%      0.0%     
 flops    13 x    32 x    32          25044664320       0.0%    100.0%      0.0%     
 flops   130 x   160 x   666          25212096000       0.0%    100.0%      0.0%     
 flops   130 x   140 x   160          25643072000       0.0%    100.0%      0.0%     
 flops   130 x   160 x   140          25643072000       0.0%    100.0%      0.0%     
 flops    26 x    12 x    13          25851670416       0.0%    100.0%      0.0%     
 flops    13 x    12 x    26          25851670416       0.0%    100.0%      0.0%     
 flops    26 x    12 x    26          27376977888       0.0%    100.0%      0.0%     
 flops   144 x   140 x   653          27382118400       0.0%    100.0%      0.0%     
 flops   156 x   140 x   653          29663961600       0.0%    100.0%      0.0%     
 flops    78 x   160 x   654          29709388800       0.0%    100.0%      0.0%     
 flops    32 x   140 x   140          30246092800       0.0%    100.0%      0.0%     
 flops   157 x   160 x   666          30448454400       0.0%    100.0%      0.0%     
 flops   157 x   140 x   160          30968940800       0.0%    100.0%      0.0%     
 flops   157 x   160 x   140          30968940800       0.0%    100.0%      0.0%     
 flops    91 x   160 x   654          34660953600       0.0%    100.0%      0.0%     
 flops   104 x   160 x   654          39612518400       0.0%    100.0%      0.0%     
 flops   106 x   160 x   654          40374297600       0.0%    100.0%      0.0%     
 flops   170 x   140 x   654          40469520000       0.0%    100.0%      0.0%     
 flops   183 x   140 x   654          43564248000       0.0%    100.0%      0.0%     
 flops    64 x   140 x   666          48216268800       0.0%    100.0%      0.0%     
 flops   130 x   160 x   654          49515648000       0.0%    100.0%      0.0%     
 flops   144 x   160 x   666          55854489600       0.0%    100.0%      0.0%     
 flops   144 x   160 x   140          56809267200       0.0%    100.0%      0.0%     
 flops   144 x   140 x   160          56809267200       0.0%    100.0%      0.0%     
 flops    78 x   160 x   653          59327923200       0.0%    100.0%      0.0%     
 flops   157 x   160 x   654          59799667200       0.0%    100.0%      0.0%     
 flops   156 x   160 x   666          60509030400       0.0%    100.0%      0.0%     
 flops    13 x    13 x   140          60878694240       0.0%    100.0%      0.0%     
 flops   156 x   140 x   160          61543372800       0.0%    100.0%      0.0%     
 flops   156 x   160 x   140          61543372800       0.0%    100.0%      0.0%     
 flops    32 x   140 x   666          66297369600       0.0%    100.0%      0.0%     
 flops    91 x   160 x   653          69215910400       0.0%    100.0%      0.0%     
 flops    13 x    26 x   140          74659603200       0.0%    100.0%      0.0%     
 flops    26 x    13 x   140          74940116160       0.0%    100.0%      0.0%     
 flops   104 x   160 x   653          79103897600       0.0%    100.0%      0.0%     
 flops    26 x    26 x   140          79820133120       0.0%    100.0%      0.0%     
 flops   106 x   160 x   653          80625126400       0.0%    100.0%      0.0%     
 flops    13 x    14 x   160          80731647360       0.0%    100.0%      0.0%     
 flops   170 x   140 x   653          80815280000       0.0%    100.0%      0.0%     
 flops    14 x    13 x   160          81311368320       0.0%    100.0%      0.0%     
 flops    14 x    26 x   160          83019955200       0.0%    100.0%      0.0%     
 flops    26 x    14 x   160          83022401280       0.0%    100.0%      0.0%     
 flops   183 x   140 x   653          86995272000       0.0%    100.0%      0.0%     
 flops    64 x   140 x   654          94695014400       0.0%    100.0%      0.0%     
 flops    14 x    32 x    14          95935746816       0.0%    100.0%      0.0%     
 flops   130 x   160 x   653          98879872000       0.0%    100.0%      0.0%     
 flops   144 x   160 x   654         109696204800       0.0%    100.0%      0.0%     
 flops   156 x   160 x   654         118837555200       0.0%    100.0%      0.0%     
 flops   157 x   160 x   653         119416460800       0.0%    100.0%      0.0%     
 flops    78 x   160 x   160         123086745600       0.0%    100.0%      0.0%     
 flops    32 x   140 x   654         130205644800       0.0%    100.0%      0.0%     
 flops    91 x   160 x   160         143601203200       0.0%    100.0%      0.0%     
 flops   104 x   160 x   160         164115660800       0.0%    100.0%      0.0%     
 flops   170 x   160 x   666         164848320000       0.0%    100.0%      0.0%     
 flops   106 x   160 x   160         167271731200       0.0%    100.0%      0.0%     
 flops   170 x   140 x   160         167666240000       0.0%    100.0%      0.0%     
 flops   170 x   160 x   140         167666240000       0.0%    100.0%      0.0%     
 flops    64 x   160 x   140         175977267200       0.0%    100.0%      0.0%     
 flops    64 x   140 x   160         175977267200       0.0%    100.0%      0.0%     
 flops   183 x   160 x   666         177454368000       0.0%    100.0%      0.0%     
 flops   183 x   160 x   140         180487776000       0.0%    100.0%      0.0%     
 flops   183 x   140 x   160         180487776000       0.0%    100.0%      0.0%     
 flops    64 x   140 x   653         189100441600       0.0%    100.0%      0.0%     
 flops   130 x   160 x   160         205144576000       0.0%    100.0%      0.0%     
 flops   144 x   160 x   653         219056947200       0.0%    100.0%      0.0%     
 flops   156 x   160 x   653         237311692800       0.0%    100.0%      0.0%     
 flops    32 x   160 x   140         241968742400       0.0%    100.0%      0.0%     
 flops    32 x   140 x   160         241968742400       0.0%    100.0%      0.0%     
 flops   157 x   160 x   160         247751526400       0.0%    100.0%      0.0%     
 flops    32 x   140 x   653         260013107200       0.0%    100.0%      0.0%     
 flops   170 x   160 x   654         323756160000       0.0%    100.0%      0.0%     
 flops   183 x   160 x   654         348513984000       0.0%    100.0%      0.0%     
 flops    13 x    32 x    14         361098541440       0.0%    100.0%      0.0%     
 flops    14 x    32 x    13         361098541440       0.0%    100.0%      0.0%     
 flops    26 x    32 x    14         372463064064       0.0%    100.0%      0.0%     
 flops    14 x    32 x    26         372463064064       0.0%    100.0%      0.0%     
 flops    64 x   160 x   666         385730150400       0.0%    100.0%      0.0%     
 flops   144 x   160 x   160         454474137600       0.0%    100.0%      0.0%     
 flops    13 x    13 x   160         487029553920       0.0%    100.0%      0.0%     
 flops   156 x   160 x   160         492346982400       0.0%    100.0%      0.0%     
 flops    32 x   160 x   666         530378956800       0.0%    100.0%      0.0%     
 flops    13 x    26 x   160         597276825600       0.0%    100.0%      0.0%     
 flops    26 x    13 x   160         599520929280       0.0%    100.0%      0.0%     
 flops    26 x    26 x   160         638561064960       0.0%    100.0%      0.0%     
 flops   170 x   160 x   653         646522240000       0.0%    100.0%      0.0%     
 flops   183 x   160 x   653         695962176000       0.0%    100.0%      0.0%     
 flops    64 x   160 x   654         757560115200       0.0%    100.0%      0.0%     
 flops    32 x   160 x   654        1041645158400       0.0%    100.0%      0.0%     
 flops   170 x   160 x   160        1341329920000       0.0%    100.0%      0.0%     
 flops    64 x   160 x   160        1407818137600       0.0%    100.0%      0.0%     
 flops   183 x   160 x   160        1443902208000       0.0%    100.0%      0.0%     
 flops    64 x   160 x   653        1512803532800       0.0%    100.0%      0.0%     
 flops    32 x   160 x   160        1935749939200       0.0%    100.0%      0.0%     
 flops    32 x   160 x   653        2080104857600       0.0%    100.0%      0.0%     
 flops    13 x    32 x    13        2133361803456       0.0%    100.0%      0.0%     
 flops    26 x    32 x    13        2688573723264       0.0%    100.0%      0.0%     
 flops    13 x    32 x    26        2688573723264       0.0%    100.0%      0.0%     
 flops    26 x    32 x    26        2847205700352       0.0%    100.0%      0.0%     
 flops inhomo. stacks              12711945485760     100.0%      0.0%      0.0%
 flops total                        49.763129E+12      25.5%     74.5%      0.0%
 flops max/rank                      1.755134E+12      27.5%     72.5%      0.0%
 matmuls inhomo. stacks                    829836     100.0%      0.0%      0.0%
 matmuls total                          666795896       0.1%     99.9%      0.0%
 number of processed stacks              11736905       7.1%     92.9%      0.0%
 average stack size                                     1.0      61.0       0.0
 marketing flops                    60.424553E+12
 -------------------------------------------------------------------------------
 # multiplications                           2773
 max memory usage/rank               1.200263E+09
 # max total images/rank                        2
 # max 3D layers                                1
 # MPI messages exchanged                 1153568
 MPI messages size (bytes):
  total size                         1.269258E+12
  min size                           0.000000E+00
  max size                           7.048856E+06
  average size                       1.100289E+06
 MPI breakdown and total messages size (bytes):
             size <=      128                1752                        0
       128 < size <=     8192                   0                        0
      8192 < size <=    32768                   0                        0
     32768 < size <=   131072                  72                  2885760
    131072 < size <=  4194304             1062368             800908274880
   4194304 < size <= 16777216               89376             468337646280
  16777216 < size                               0                        0
 -------------------------------------------------------------------------------

 *** WARNING in dbcsr_mm.F:301 :: Using a non-square number of MPI ranks ***
 *** might lead to poor performance. Used ranks: 32 Suggested: 36 64     ***

 -------------------------------------------------------------------------------
 -                                                                             -
 -                      DBCSR MESSAGE PASSING PERFORMANCE                      -
 -                                                                             -
 -------------------------------------------------------------------------------
 ROUTINE             CALLS      AVE VOLUME [Bytes]
 MP_Bcast              181                     12.
 MP_Allreduce        15340                     43.
 MP_Alltoall          9139                 110436.
 MP_ISend            86450                 478756.
 MP_IRecv            86450                 476142.
 -------------------------------------------------------------------------------

 -------------------------------------------------------------------------------
 -                                                                             -
 -                                DBM STATISTICS                               -
 -                                                                             -
 -------------------------------------------------------------------------------
    M  x    N  x    K                                          COUNT     PERCENT
 -------------------------------------------------------------------------------

 -------------------------------------------------------------------------------
 -                                                                             -
 -                                GRID STATISTICS                              -
 -                                                                             -
 -------------------------------------------------------------------------------
 LP    KERNEL             BACKEND                              COUNT     PERCENT
 5     collocate ortho    CPU                               24490368      24.49%
 5     integrate ortho    CPU                               24299037      24.30%
 4     collocate ortho    CPU                               15035136      15.04%
 4     integrate ortho    CPU                               14917674      14.92%
 6     collocate ortho    CPU                               10457472      10.46%
 6     integrate ortho    CPU                               10375773      10.38%
 8     integrate ortho    CPU                                 191331       0.19%
 7     integrate ortho    CPU                                 117462       0.12%
 9     integrate ortho    CPU                                  81699       0.08%
 0     collocate general  CPU                                  10080       0.01%
 3     integrate general  CPU                                  10080       0.01%
 -------------------------------------------------------------------------------

 MEMORY| Estimated peak process memory [MiB]                                1145

 -------------------------------------------------------------------------------
 -                                                                             -
 -                         MESSAGE PASSING PERFORMANCE                         -
 -                                                                             -
 -------------------------------------------------------------------------------

 ROUTINE             CALLS      AVE VOLUME [Bytes]
 MP_Group                5
 MP_Bcast            10707                 112148.
 MP_Allreduce        28334                   1650.
 MP_Sync               125
 MP_Alltoall          3091               21570106.
 MP_SendRecv         11904                 100760.
 MP_ISendRecv        11904                 100760.
 MP_Wait             32718
 MP_ISend            19016                 368483.
 MP_IRecv            19016                 368483.
 -------------------------------------------------------------------------------


 -------------------------------------------------------------------------------
 -                                                                             -
 -                           R E F E R E N C E S                               -
 -                                                                             -
 -------------------------------------------------------------------------------
 
 CP2K version 2024.3, the CP2K developers group (2024).
 CP2K is freely available from https://www.cp2k.org/ .
 
 T. D. Kuehne, M. Iannuzzi, M. Del Ben, V. V. Rybkin, P. Seewald, F. Stein, T. 
 Laino, R. Z. Khaliullin, O. Schuett, F. Schiffmann, D. Golze, J. Wilhelm, S. 
 Chulkov, M. H. Bani-Hashemian, V. Weber, U. Borstnik, M. Taillefumier, A. S. 
 Jakobovits, A. Lazzaro, H. Pabst, T. Mueller, R. Schade, M. Guidon, S. 
 Andermatt, N. Holmberg, G. K. Schenter, A. Hehn, A. Bussy, F. Belleflamme, G. 
 Tabacchi, A. Gloess, M. Lass, I. Bethune, C. J. Mundy, C. Plessl, M. Watkins, 
 J. VandeVondele, M. Krack, J. Hutter.
 J. Chem. Phys. 152, 194103 (2020).
 CP2K: An electronic structure and molecular dynamics software package - 
 Quickstep: Efficient and accurate electronic structure calculations.
 https://doi.org/10.1063/5.0007045

 O. Schuett, P. Messmer, J. Hutter, J. VandeVondele.
 Electronic Structure Calculations on Graphics Processing Units, 173-190 (2016).
 GPU-Accelerated Sparse Matrix-Matrix Multiplication for Linear Scaling Density 
 Functional Theory.
 https://doi.org/10.1002/9781118670712.ch8

 A. Heinecke, G. Henry, M. Hutchinson, H. Pabst.
 Proceedings of Intl. Supercomputing Conference, 981-991 (2016).
 LIBXSMM: Accelerating Small Matrix Multiplications by Runtime Code Generation.
 https://doi.org/10.1109/SC.2016.83

 J. Hutter, M. Iannuzzi, F. Schiffmann, J. VandeVondele.
 WIREs Comput Mol Sci. 4, 15-25 (2014).
 CP2K: atomistic simulations of condensed matter systems.
 https://doi.org/10.1002/wcms.1159

 U. Borstnik, J. VandeVondele, V. Weber, J. Hutter.
 Parallel Comput. 40, 47-58 (2014).
 Sparse matrix multiplication: The distributed block-compressed sparse row 
 library.
 https://doi.org/10.1016/j.parco.2014.03.012

 A. Marek, V. Blum, R. Johanni, V. Havu, B. Lang, T. Auckenthaler, A. Heinecke, 
 H. Bungartz, H. Lederer.
 J. Phys. Condens. Matter 26, 213201 (2014).
 The ELPA library: scalable parallel eigenvalue solutions for electronic 
 structure theory and computational science.
 https://doi.org/10.1088/0953-8984/26/21/213201

 J. P. Perdew, A. Ruzsinszky, G. I. Csonka, O. A. Vydrov, G. E. Scuseria, L. A. 
 Constantin, X. Zhou, K. Burke.
 Phys. Rev. Lett. 100, 136406-136409 (2008).
 Restoring the Density-Gradient Expansion for Exchange in Solids and Surfaces.
 https://doi.org/10.1103/PhysRevLett.100.136406

 J. VandeVondele, J. Hutter.
 J. Chem. Phys. 127, 114105 (2007).
 Gaussian basis sets for accurate calculations on molecular systems in gas and 
 condensed phases.
 https://doi.org/10.1063/1.2770708

 J. VandeVondele, M. Krack, F. Mohamed, M. Parrinello, T. Chassaing, J. Hutter.
 Comput. Phys. Commun. 167, 103-128 (2005).
 QUICKSTEP: Fast and accurate density functional calculations using a mixed 
 Gaussian and plane waves approach.
 https://doi.org/10.1016/j.cpc.2004.12.014

 M. Krack.
 Theor. Chem. Acc. 114, 145-152 (2005).
 Pseudopotentials for H to Kr optimized for gradient-corrected 
 exchange-correlation functionals.
 https://doi.org/10.1007/s00214-005-0655-y

 M. Frigo, S. G. Johnson.
 Proc. IEEE 93, 216-231 (2005).
 The design and implementation of FFTW3.
 https://doi.org/10.1109/JPROC.2004.840301

 J. VandeVondele, J. Hutter.
 J. Chem. Phys. 118, 4365-4369 (2003).
 An efficient orbital transformation method for electronic structure 
 calculations.
 https://doi.org/10.1063/1.1543154

 C. Hartwigsen, S. Goedecker, J. Hutter.
 Phys. Rev. B 58, 3641-3662 (1998).
 Relativistic separable dual-space Gaussian pseudopotentials from H to Rn.
 https://doi.org/10.1103/PhysRevB.58.3641

 G. Lippert, J. Hutter, M. Parrinello.
 Mol. Phys. 92, 477-487 (1997).
 A hybrid Gaussian and plane wave density functional scheme.
 https://doi.org/10.1080/002689797170220

 S. Goedecker, M. Teter, J. Hutter.
 Phys. Rev. B 54, 1703-1710 (1996).
 Separable dual-space Gaussian pseudopotentials.
 https://doi.org/10.1103/PhysRevB.54.1703

 J. P. Perdew, K. Burke, M. Ernzerhof.
 Phys. Rev. Lett. 77, 3865-3868 (1996).
 Generalized gradient approximation made simple.
 https://doi.org/10.1103/PhysRevLett.77.3865


 -------------------------------------------------------------------------------
 -                                                                             -
 -                                T I M I N G                                  -
 -                                                                             -
 -------------------------------------------------------------------------------
 SUBROUTINE                       CALLS  ASD         SELF TIME        TOTAL TIME
                                MAXIMUM       AVERAGE  MAXIMUM  AVERAGE  MAXIMUM
 CP2K                                 1  1.0    1.322    1.553  162.048  162.076
 qs_forces                            1  2.0    0.002    0.002  159.170  159.172
 qs_energies                          1  3.0    0.049    0.099  152.419  152.427
 scf_env_do_scf                       1  4.0    0.009    0.017  149.829  149.831
 scf_env_do_scf_inner_loop          127  5.0    0.027    0.204  144.438  144.442
 rebuild_ks_matrix                  128  7.0    0.001    0.001   62.202   62.438
 qs_ks_build_kohn_sham_matrix       128  8.0    0.028    0.037   62.202   62.437
 qs_ks_update_qs_env                130  6.0    0.002    0.002   61.055   61.295
 qs_scf_new_mos                     127  6.0    0.001    0.001   53.274   53.474
 qs_scf_loop_do_ot                  127  7.0    0.001    0.001   53.273   53.473
 ot_scf_mini                        127  8.0    0.011    0.019   50.737   50.885
 dbcsr_multiply_generic            2773 11.1    0.150    0.155   39.401   39.874
 qs_rho_update_rho_low              128  6.0    0.001    0.001   31.974   32.068
 calculate_rho_elec                 128  7.0    0.516    0.566   31.973   32.067
 fft_wrap_pw1pw2                   2561 11.1    0.047    0.052   30.684   31.051
 fft_wrap_pw1pw2_300               1537 12.6    2.007    2.127   29.293   29.629
 multiply_cannon                   2773 12.1    0.309    0.336   25.826   27.625
 ot_mini                            127  9.0    0.002    0.003   25.573   25.732
 qs_vxc_create                      128  9.0    0.010    0.018   25.641   25.646
 xc_vxc_pw_create                   128 10.0    0.677    0.764   25.631   25.643
 multiply_cannon_loop              2773 13.1    0.171    0.198   23.235   24.310
 sum_up_and_integrate               128  9.0    0.004    0.006   24.137   24.175
 integrate_v_rspace                 128 10.0    0.006    0.015   24.049   24.081
 fft3d_ps                          2561 13.1   11.610   12.388   22.825   23.467
 grid_collocate_task_list           128  8.0   20.760   21.879   20.760   21.879
 multiply_cannon_multrec          22184 14.1   17.743   19.062   17.761   19.078
 qs_ot_get_p                        130  9.0    0.002    0.002   18.831   19.031
 xc_pw_derive                       768 12.0    0.006    0.006   16.837   17.355
 qs_ot_get_derivative               127 10.0    0.002    0.002   16.327   16.489
 grid_integrate_task_list           128 11.0   15.319   16.196   15.319   16.196
 qs_ot_p2m_diag                     120 10.0    0.486    0.514   15.523   15.560
 xc_rho_set_and_dset_create         128 11.0    0.445    0.471   13.491   14.000
 cp_dbcsr_syevd                     120 11.0    0.012    0.013   13.782   13.788
 cp_fm_diag_elpa                    120 12.0    0.001    0.001   13.409   13.427
 cp_fm_diag_elpa_base               120 13.0   13.300   13.332   13.387   13.388
 xc_pw_divergence                   128 11.0    0.002    0.003   11.237   11.703
 density_rs2pw                      128  8.0    0.007    0.008   10.022   11.272
 qs_ot_get_derivative_diag          118 11.0    0.004    0.005   11.079   11.223
 mp_alltoall_z22v                  2561 15.1    8.128    9.269    8.128    9.269
 make_m2s                          5546 12.1    0.093    0.097    8.557    9.217
 ot_diis_step                       127 10.0    0.038    0.039    9.144    9.144
 apply_preconditioner_dbcsr         130 11.0    0.000    0.001    7.123    7.551
 apply_single                       130 12.0    0.000    0.001    7.123    7.551
 mp_waitall_1                    191174 15.2    5.796    7.545    5.796    7.545
 potential_pw2rs                    128 11.0    0.029    0.034    7.499    7.518
 x_to_yz                           1280 14.5    1.909    2.206    6.182    6.596
 make_images                       5546 13.1    0.634    0.836    5.562    6.045
 transfer_rs2pw                     641  9.0    0.009    0.010    4.522    5.815
 yz_to_x                           1025 13.9    1.108    1.202    4.956    5.681
 init_scf_loop                        3  5.0    0.001    0.003    5.376    5.382
 build_core_hamiltonian_matrix_       1  3.0    0.000    0.000    4.361    5.281
 mp_waitany                       19016 12.5    3.762    5.197    3.762    5.197
 mp_sum_d                          7797 11.6    3.324    5.040    3.324    5.040
 xc_functional_eval                 128 12.0    0.003    0.004    4.376    4.824
 pbe_lda_eval                       128 13.0    4.374    4.822    4.374    4.822
 build_core_ppnl_forces               1  4.0    3.577    4.594    3.577    4.594
 transfer_rs2pw_300                 129 10.0    0.725    0.839    3.016    4.403
 multiply_cannon_metrocomm3       22184 14.1    0.058    0.060    2.517    4.304
 transfer_pw2rs                     641 12.0    0.005    0.006    4.249    4.258
 mp_sum_l                         13749 11.9    2.744    4.210    2.744    4.210
 dbcsr_make_dense_low              9845 14.1    0.066    0.069    3.386    4.144
 calc_dipsurf_potential             128  9.0    0.602    0.651    4.029    4.119
 make_dense_data                   9845 15.1    3.066    3.840    3.294    4.052
 dbcsr_make_images_dense           4990 13.3    0.047    0.049    2.789    3.485
 prepare_preconditioner               3  6.0    0.000    0.001    3.312    3.318
 make_preconditioner                  3  7.0    0.001    0.003    3.312    3.318
 -------------------------------------------------------------------------------

 The number of warnings for this run is : 1
 
 -------------------------------------------------------------------------------
  **** **** ******  **  PROGRAM ENDED AT                 2026-08-31 15:54:41.432
 ***** ** ***  *** **   PROGRAM RAN ON                                 nid001071
 **    ****   ******    PROGRAM RAN BY                                    agne_r
 ***** **    ** ** **   PROGRAM PROCESS ID                                 98773
  **** **  *******  **  PROGRAM STOPPED IN /mnt/lustre/a2fs-work3/work/e89/e89/a
                                           gne_r/Crystalline_HfO2_Interfaces/Cla
                                           ude/HfO2_STO_interfaces/V4_lattice_ma
                                           tches/updated/V4_lattice_matches/STO_
                                           HfO2_m111_pbesol_matches/configs/m04_
                                           A0137_eps2p5
