 DBCSR| CPU Multiplication driver                                           XSMM (U)
 DBCSR| Multrec recursion limit                                              512 (U)
 DBCSR| Multiplication stack size                                           1000 (D)
 DBCSR| Maximum elements for images                                    UNLIMITED (U)
 DBCSR| Multiplicative factor virtual images                                   1 (U)
 DBCSR| Use multiplication densification                                       T (D)
 DBCSR| Multiplication size stacks                                             3 (U)
 DBCSR| Use memory pool for CPU allocation                                     F (U)
 DBCSR| Number of 3D layers                                               SINGLE (U)
 DBCSR| Use MPI memory allocation                                              F (U)
 DBCSR| Use RMA algorithm                                                      F (U)
 DBCSR| Use Communication thread                                               T (U)
 DBCSR| Communication thread load                                             60 (D)
 DBCSR| MPI: My process id                                                     0
 DBCSR| MPI: Number of processes                                              16
 DBCSR| OMP: Current number of threads                                         8
 DBCSR| OMP: Max number of threads                                             8
 DBCSR| Split modifier for TAS multiplication algorithm                  1.0E+00 (U)


  **** **** ******  **  PROGRAM STARTED AT               2026-08-20 02:47:11.206
 ***** ** ***  *** **   PROGRAM STARTED ON                             nid001767
 **    ****   ******    PROGRAM STARTED BY                                agne_r
 ***** **    ** ** **   PROGRAM PROCESS ID                                132680
  **** **  *******  **  PROGRAM STARTED IN /mnt/lustre/a2fs-work3/work/e89/e89/a
                                           gne_r/Crystalline_HfO2_Interfaces/Cla
                                           ude/Reference_cell_reopt/m-HfO2

 CP2K| version string:                                       CP2K version 2024.3
 CP2K| source code revision number:                                  git:6712648
 CP2K| cp2kflags: omp libint fftw3 libxc libgrpp elpa parallel scalapack cosma x
 CP2K|            smm plumed2 spglib mkl sirius libvori libbqb libvdwxc hdf5
 CP2K| is freely available from                            https://www.cp2k.org/
 CP2K| Program compiled at                       Thu 12 Sep 2024 10:20:47 AM BST
 CP2K| Program compiled on                                                  ln04
 CP2K| Program compiled for                                                local
 CP2K| Data directory path    /mnt/lustre/a2fs-work1/work/y07/shared/apps/core/c
 CP2K| Input file name                                                  cp2k.inp

 GLOBAL| Force Environment number                                              1
 GLOBAL| Basis set file name                                        BASIS_MOLOPT
 GLOBAL| Potential file name                                      GTH_POTENTIALS
 GLOBAL| MM Potential file name                                     MM_POTENTIAL
 GLOBAL| Coordinate file name                                           bulk.cif
 GLOBAL| Method name                                                        CP2K
 GLOBAL| Project name                                                     m-HfO2
 GLOBAL| Run type                                                       CELL_OPT
 GLOBAL| FFT library                                                       FFTW3
 GLOBAL| Diagonalization library                                            ELPA
 GLOBAL| DGEMM library                                                      BLAS
 GLOBAL| Minimum number of eigenvectors for ELPA usage                        16
 GLOBAL| Orthonormality check for eigenvectors                          DISABLED
 GLOBAL| Matrix multiplication library                                     COSMA
 GLOBAL| All-to-all communication in single precision                          F
 GLOBAL| FFTs using library dependent lengths                                  F
 GLOBAL| Grid backend                                                       AUTO
 GLOBAL| Global print level                                                  LOW
 GLOBAL| MPI I/O enabled                                                       T
 GLOBAL| Total number of message passing processes                            16
 GLOBAL| Number of threads for this process                                    8
 GLOBAL| This output is from process                                           0
 GLOBAL| Stack size for threads created by OpenMP (OMP_STACKSIZE)        default
 GLOBAL| CPU model name                          AMD EPYC 7742 64-Core Processor
 GLOBAL| CPUID                                                              1002

 MEMORY| system memory details [Kb]
 MEMORY|                        rank 0           min           max       average
 MEMORY| MemTotal            263266916     263266916     263266916     263266916
 MEMORY| MemFree             247709328     247709328     247709328     247709328
 MEMORY| Buffers                223048        223048        223048        223048
 MEMORY| Cached                1375684       1375684       1375684       1375684
 MEMORY| Slab                  5141008       5141008       5141008       5141008
 MEMORY| SReclaimable          2147156       2147156       2147156       2147156
 MEMORY| MemLikelyFree       251455216     251455216     251455216     251455216


 GENERATE|  Preliminary Number of Bonds generated:                             0
 GENERATE|  Achieved consistency in connectivity generation.

 *******************************************************************************
 *******************************************************************************
 **                                                                           **
 **     #####                         ##              ##                      **
 **    ##   ##            ##          ##              ##                      **
 **   ##     ##                       ##            ######                    **
 **   ##     ##  ##   ##  ##   #####  ##  ##   ####   ##    #####    #####    **
 **   ##     ##  ##   ##  ##  ##      ## ##   ##      ##   ##   ##  ##   ##   **
 **   ##  ## ##  ##   ##  ##  ##      ####     ###    ##   ######   ######    **
 **    ##  ###   ##   ##  ##  ##      ## ##      ##   ##   ##       ##        **
 **     #######   #####   ##   #####  ##  ##  ####    ##    #####   ##        **
 **           ##                                                    ##        **
 **                                                                           **
 **                                                ... make the atoms dance   **
 **                                                                           **
 **            Copyright (C) by CP2K developers group (2000-2024)             **
 **                      J. Chem. Phys. 152, 194103 (2020)                    **
 **                                                                           **
 *******************************************************************************


 TOTAL NUMBERS AND MAXIMUM NUMBERS

  Total number of            - Atomic kinds:                                   2
                             - Atoms:                                         12
                             - Shell sets:                                    12
                             - Shells:                                        72
                             - Primitive Cartesian functions:                 64
                             - Cartesian basis functions:                    236
                             - Spherical basis functions:                    208

  Maximum angular momentum of- Orbital basis functions:                        3
                             - Local part of the GTH pseudopotential:          2
                             - Non-local part of the GTH pseudopotential:      4


 SCF PARAMETERS         Density guess:                                    ATOMIC
                        --------------------------------------------------------
                        max_scf:                                             100
                        max_scf_history:                                       0
                        max_diis:                                              4
                        --------------------------------------------------------
                        eps_scf:                                        1.00E-08
                        eps_scf_history:                                0.00E+00
                        eps_diis:                                       1.00E-01
                        eps_eigval:                                     1.00E-05
                        --------------------------------------------------------
                        level_shift [a.u.]:                             0.000000
                        added MOs                                        12    0
                        --------------------------------------------------------
                        Mixing method:                            BROYDEN_MIXING
                                                charge density mixing in g-space
                        --------------------------------------------------------
                        Smear method:                                FERMI_DIRAC
                        Electronic temperature [K]:                        300.0
                        Electronic temperature [a.u.]:                  9.50E-04
                        Accuracy threshold:                             1.00E-10
                        --------------------------------------------------------
                        No outer SCF

 CELL_OPT| Pressure tolerance [bar]:                                       100.0
 CELL_OPT| Keep angles between the cell vectors:                              NO
 CELL_OPT| Keep cell symmetry:                                               YES
 CELL_OPT| Constraint:                                                      NONE

 *******************************************************************************
 ***                     STARTING   CELL   OPTIMIZATION                      ***
 ***                                 L-BFGS                                  ***
 *******************************************************************************

 --------------------------
 OPTIMIZATION STEP:      1
 --------------------------

 CELL| Volume [angstrom^3]:                                           133.943661
 CELL| Vector a [angstrom]:       5.056     0.000     0.000   |a| =     5.056233
 CELL| Vector b [angstrom]:       0.000     5.143     0.000   |b| =     5.142513
 CELL| Vector c [angstrom]:      -0.838     0.000     5.151   |c| =     5.219069
 CELL| Angle (b,c), alpha [degree]:                                    90.000000
 CELL| Angle (a,c), beta  [degree]:                                    99.240978
 CELL| Angle (a,b), gamma [degree]:                                    90.000000
 CELL| Numerically orthorhombic:                                              NO
 CELL| Periodicity                                                           XYZ

 Number of electrons:                                                         96
 Number of occupied orbitals:                                                 48
 Number of molecular orbitals:                                                60

 Number of orbital functions:                                                208
 Number of independent orbital functions:                                    208

 Extrapolation method: initial_guess


 SCF WAVEFUNCTION OPTIMIZATION

  Step     Update method      Time    Convergence         Total energy    Change
  ------------------------------------------------------------------------------
     1 NoMix/Diag. 0.40E+00    2.3     1.81058959      -326.2118633367 -3.26E+02
     2 Broy./Diag. 0.40E+00    2.1     0.37869064      -316.7937014157  9.42E+00
     3 Broy./Diag. 0.40E+00    2.1     0.02903766      -328.5538549176 -1.18E+01
     4 Broy./Diag. 0.40E+00    2.1     0.03294673      -325.7710158763  2.78E+00
     5 Broy./Diag. 0.40E+00    2.1     0.00507821      -325.5403289377  2.31E-01
     6 Broy./Diag. 0.40E+00    2.1     0.00340279      -325.5506522920 -1.03E-02
     7 Broy./Diag. 0.40E+00    2.1     0.00059589      -325.5805578001 -2.99E-02
     8 Broy./Diag. 0.40E+00    2.1     0.00015708      -325.6007498011 -2.02E-02
     9 Broy./Diag. 0.40E+00    2.1     0.00010249      -325.5960770198  4.67E-03
    10 Broy./Diag. 0.40E+00    2.1     0.00000543      -325.5977106143 -1.63E-03
    11 Broy./Diag. 0.40E+00    2.1     0.00000132      -325.5976075921  1.03E-04
    12 Broy./Diag. 0.40E+00    2.1     0.00000033      -325.5976321962 -2.46E-05
    13 Broy./Diag. 0.40E+00    2.1     0.00000002      -325.5976336286 -1.43E-06
    14 Broy./Diag. 0.40E+00    2.1     0.00000002      -325.5976335109  1.18E-07
    15 Broy./Diag. 0.40E+00    2.1     2.3660E-09      -325.5976334324  7.86E-08

  *** SCF run converged in    15 steps ***


  Electronic density on regular grids:        -95.9999999999        0.0000000001
  Core density on regular grids:               95.9999999999       -0.0000000001
  Total charge density on r-space grids:       -0.0000000000
  Total charge density g-space grids:          -0.0000000000

  Overlap energy of the core charge distribution:               0.00000006640221
  Self energy of the core charge distribution:               -622.36429959940847
  Core Hamiltonian energy:                                    156.87433426415038
  Hartree energy:                                             192.13458148291929
  Exchange-correlation energy:                                -52.24224964641543
  Electronic entropic energy:                                  -0.00000000000000
  Fermi energy:                                                 0.33749240430997

  Total energy:                                              -325.59763343235204

 ENERGY| Total FORCE_EVAL ( QS ) energy [a.u.]:             -325.597633405539511

 CELL| Volume [angstrom^3]:                                           141.620142
 CELL| Vector a [angstrom]:       5.086     0.000     0.000   |a| =     5.086343
 CELL| Vector b [angstrom]:      -0.000     5.366     0.000   |b| =     5.366092
 CELL| Vector c [angstrom]:      -0.840     0.000     5.189   |c| =     5.256344
 CELL| Angle (b,c), alpha [degree]:                                    89.999987
 CELL| Angle (a,c), beta  [degree]:                                    99.199667
 CELL| Angle (a,b), gamma [degree]:                                    90.000008
 CELL| Numerically orthorhombic:                                              NO
 CELL| Periodicity                                                           XYZ

 Number of electrons:                                                         96
 Number of occupied orbitals:                                                 48
 Number of molecular orbitals:                                                60

 Number of orbital functions:                                                208
 Number of independent orbital functions:                                    208

 Extrapolation method: initial_guess


 SCF WAVEFUNCTION OPTIMIZATION

  Step     Update method      Time    Convergence         Total energy    Change
  ------------------------------------------------------------------------------
     1 NoMix/Diag. 0.40E+00    2.0     1.81176546      -325.7953556699 -3.26E+02
     2 Broy./Diag. 0.40E+00    2.1     0.40575421      -316.8701169869  8.93E+00
     3 Broy./Diag. 0.40E+00    2.1     0.04584599      -329.1240369946 -1.23E+01
     4 Broy./Diag. 0.40E+00    2.1     0.03783421      -325.7638040039  3.36E+00
     5 Broy./Diag. 0.40E+00    2.1     0.00890173      -325.5439873863  2.20E-01
     6 Broy./Diag. 0.40E+00    2.1     0.00416125      -325.4866813978  5.73E-02
     7 Broy./Diag. 0.40E+00    2.1     0.00111368      -325.4958705161 -9.19E-03
     8 Broy./Diag. 0.40E+00    2.1     0.00025690      -325.5350118668 -3.91E-02
     9 Broy./Diag. 0.40E+00    2.1     0.00008702      -325.5286929470  6.32E-03
    10 Broy./Diag. 0.40E+00    2.1     0.00000633      -325.5303722244 -1.68E-03
    11 Broy./Diag. 0.40E+00    2.1     0.00000382      -325.5302001935  1.72E-04
    12 Broy./Diag. 0.40E+00    2.1     0.00000037      -325.5302546585 -5.45E-05
    13 Broy./Diag. 0.40E+00    2.1     0.00000009      -325.5302591732 -4.51E-06
    14 Broy./Diag. 0.40E+00    2.1     0.00000004      -325.5302605199 -1.35E-06
    15 Broy./Diag. 0.40E+00    2.1     4.1311E-09      -325.5302608181 -2.98E-07

  *** SCF run converged in    15 steps ***


  Electronic density on regular grids:        -95.9999999999        0.0000000001
  Core density on regular grids:               95.9999999999       -0.0000000001
  Total charge density on r-space grids:       -0.0000000000
  Total charge density g-space grids:          -0.0000000000

  Overlap energy of the core charge distribution:               0.00000041412883
  Self energy of the core charge distribution:               -622.36429959940847
  Core Hamiltonian energy:                                    156.01562925894410
  Hartree energy:                                             192.80334528961311
  Exchange-correlation energy:                                -51.98493618137696
  Electronic entropic energy:                                  -0.00000000000003
  Fermi energy:                                                 0.39412522499730

  Total energy:                                              -325.53026081809941

 ENERGY| Total FORCE_EVAL ( QS ) energy [a.u.]:             -325.530260724416848

 CELL| Volume [angstrom^3]:                                           133.946379
 CELL| Vector a [angstrom]:       5.056     0.000     0.000   |a| =     5.056244
 CELL| Vector b [angstrom]:      -0.000     5.143     0.000   |b| =     5.142593
 CELL| Vector c [angstrom]:      -0.838     0.000     5.151   |c| =     5.219082
 CELL| Angle (b,c), alpha [degree]:                                    90.000000
 CELL| Angle (a,c), beta  [degree]:                                    99.240963
 CELL| Angle (a,b), gamma [degree]:                                    90.000000
 CELL| Numerically orthorhombic:                                              NO
 CELL| Periodicity                                                           XYZ

 Number of electrons:                                                         96
 Number of occupied orbitals:                                                 48
 Number of molecular orbitals:                                                60

 Number of orbital functions:                                                208
 Number of independent orbital functions:                                    208

 Extrapolation method: initial_guess


 SCF WAVEFUNCTION OPTIMIZATION

  Step     Update method      Time    Convergence         Total energy    Change
  ------------------------------------------------------------------------------
     1 NoMix/Diag. 0.40E+00    2.0     1.81059015      -326.2116765056 -3.26E+02
     2 Broy./Diag. 0.40E+00    2.1     0.37869442      -316.7938629041  9.42E+00
     3 Broy./Diag. 0.40E+00    2.1     0.02904350      -328.5541222326 -1.18E+01
     4 Broy./Diag. 0.40E+00    2.1     0.03294927      -325.7710414421  2.78E+00
     5 Broy./Diag. 0.40E+00    2.1     0.00507933      -325.5403425308  2.31E-01
     6 Broy./Diag. 0.40E+00    2.1     0.00340340      -325.5506544534 -1.03E-02
     7 Broy./Diag. 0.40E+00    2.1     0.00059605      -325.5805520599 -2.99E-02
     8 Broy./Diag. 0.40E+00    2.1     0.00015711      -325.6007505081 -2.02E-02
     9 Broy./Diag. 0.40E+00    2.1     0.00010250      -325.5960768807  4.67E-03
    10 Broy./Diag. 0.40E+00    2.1     0.00000542      -325.5977105924 -1.63E-03
    11 Broy./Diag. 0.40E+00    2.1     0.00000132      -325.5976075981  1.03E-04
    12 Broy./Diag. 0.40E+00    2.2     0.00000033      -325.5976322064 -2.46E-05
    13 Broy./Diag. 0.40E+00    2.1     0.00000002      -325.5976336390 -1.43E-06
    14 Broy./Diag. 0.40E+00    2.1     0.00000002      -325.5976335210  1.18E-07
    15 Broy./Diag. 0.40E+00    2.1     2.3584E-09      -325.5976334424  7.86E-08

  *** SCF run converged in    15 steps ***


  Electronic density on regular grids:        -95.9999999999        0.0000000001
  Core density on regular grids:               95.9999999999       -0.0000000001
  Total charge density on r-space grids:       -0.0000000000
  Total charge density g-space grids:          -0.0000000000

  Overlap energy of the core charge distribution:               0.00000006638530
  Self energy of the core charge distribution:               -622.36429959940847
  Core Hamiltonian energy:                                    156.87385478851368
  Hartree energy:                                             192.13493413869992
  Exchange-correlation energy:                                -52.24212283662567
  Electronic entropic energy:                                  -0.00000000000000
  Fermi energy:                                                 0.33747759167915

  Total energy:                                              -325.59763344243527

 ENERGY| Total FORCE_EVAL ( QS ) energy [a.u.]:             -325.597633415668781

 OPT| **************************************************************************
 OPT| Step number                                                              1
 OPT| Optimization method                                                  LBFGS
 OPT| Total energy [hartree]                                     -325.5976334157
 OPT| Internal pressure [bar]                                     -31.9705120045
 OPT| Effective energy change [hartree]                            -0.0000000101
 OPT| Decrease in energy                                                     YES
 OPT| Used time [s]                                                      102.149
 OPT|
 OPT| Maximum step size                                             0.0001512254
 OPT| Convergence limit for maximum step size                       0.0200000000
 OPT| Maximum step size is converged                                         YES
 OPT|
 OPT| RMS step size                                                 0.0000552293
 OPT| Convergence limit for RMS step size                           0.0015000000
 OPT| RMS step size is converged                                             YES
 OPT|
 OPT| Maximum gradient                                              0.0000177685
 OPT| Convergence limit for maximum gradient                        0.0004500000
 OPT| Maximum gradient is converged                                          YES
 OPT|
 OPT| RMS gradient                                                  0.0000069351
 OPT| Convergence limit for RMS gradient                            0.0000100000
 OPT| RMS gradient is converged                                              YES
 OPT|
 OPT| Pressure deviation [bar]                                    -32.9705120045
 OPT| Pressure tolerance [bar]                                    100.0000000000
 OPT| Pressure is converged                                                  YES
 OPT| **************************************************************************
 OPT| Estimated peak process memory after this step [MiB]                    400

 *******************************************************************************
 ***                    GEOMETRY OPTIMIZATION COMPLETED                      ***
 *******************************************************************************

                    Reevaluating energy at the minimum

 CELL| Volume [angstrom^3]:                                           133.946379
 CELL| Vector a [angstrom]:       5.056     0.000     0.000   |a| =     5.056244
 CELL| Vector b [angstrom]:      -0.000     5.143     0.000   |b| =     5.142593
 CELL| Vector c [angstrom]:      -0.838     0.000     5.151   |c| =     5.219082
 CELL| Angle (b,c), alpha [degree]:                                    90.000000
 CELL| Angle (a,c), beta  [degree]:                                    99.240963
 CELL| Angle (a,b), gamma [degree]:                                    90.000000
 CELL| Numerically orthorhombic:                                              NO
 CELL| Periodicity                                                           XYZ

 Number of electrons:                                                         96
 Number of occupied orbitals:                                                 48
 Number of molecular orbitals:                                                60

 Number of orbital functions:                                                208
 Number of independent orbital functions:                                    208

 Extrapolation method: initial_guess


 SCF WAVEFUNCTION OPTIMIZATION

  Step     Update method      Time    Convergence         Total energy    Change
  ------------------------------------------------------------------------------
     1 Broy./Diag. 0.40E+00    2.0     1.81059015      -326.2116765056 -3.26E+02
     2 Broy./Diag. 0.40E+00    2.1     0.37869442      -316.7938629041  9.42E+00
     3 Broy./Diag. 0.40E+00    2.1     0.02904350      -328.5541222326 -1.18E+01
     4 Broy./Diag. 0.40E+00    2.1     0.03294927      -325.7710414421  2.78E+00
     5 Broy./Diag. 0.40E+00    2.1     0.00507933      -325.5403425308  2.31E-01
     6 Broy./Diag. 0.40E+00    2.1     0.00340340      -325.5506544534 -1.03E-02
     7 Broy./Diag. 0.40E+00    2.1     0.00059605      -325.5805520599 -2.99E-02
     8 Broy./Diag. 0.40E+00    2.1     0.00015711      -325.6007505081 -2.02E-02
     9 Broy./Diag. 0.40E+00    2.1     0.00010250      -325.5960768807  4.67E-03
    10 Broy./Diag. 0.40E+00    2.1     0.00000542      -325.5977105924 -1.63E-03
    11 Broy./Diag. 0.40E+00    2.1     0.00000132      -325.5976075981  1.03E-04
    12 Broy./Diag. 0.40E+00    2.1     0.00000033      -325.5976322064 -2.46E-05
    13 Broy./Diag. 0.40E+00    2.1     0.00000002      -325.5976336390 -1.43E-06
    14 Broy./Diag. 0.40E+00    2.1     0.00000002      -325.5976335210  1.18E-07
    15 Broy./Diag. 0.40E+00    2.1     2.3577E-09      -325.5976334424  7.86E-08

  *** SCF run converged in    15 steps ***


  Electronic density on regular grids:        -95.9999999999        0.0000000001
  Core density on regular grids:               95.9999999999       -0.0000000001
  Total charge density on r-space grids:       -0.0000000000
  Total charge density g-space grids:          -0.0000000000

  Overlap energy of the core charge distribution:               0.00000006638530
  Self energy of the core charge distribution:               -622.36429959940847
  Core Hamiltonian energy:                                    156.87385478851328
  Hartree energy:                                             192.13493413870037
  Exchange-correlation energy:                                -52.24212283662560
  Electronic entropic energy:                                  -0.00000000000000
  Fermi energy:                                                 0.33747759167915

  Total energy:                                              -325.59763344243510

 ENERGY| Total FORCE_EVAL ( QS ) energy [a.u.]:             -325.597633442435097

 -------------------------------------------------------------------------------
 -                                                                             -
 -                                DBCSR STATISTICS                             -
 -                                                                             -
 -------------------------------------------------------------------------------
 COUNTER                                    TOTAL       BLAS       SMM       ACC
 flops inhomo. stacks                           0       0.0%      0.0%      0.0%
 flops total                         0.000000E+00       0.0%      0.0%      0.0%
 flops max/rank                      0.000000E+00       0.0%      0.0%      0.0%
 matmuls inhomo. stacks                         0       0.0%      0.0%      0.0%
 matmuls total                                  0       0.0%      0.0%      0.0%
 number of processed stacks                     0       0.0%      0.0%      0.0%
 average stack size                                     0.0       0.0       0.0
 marketing flops                     0.000000E+00
 -------------------------------------------------------------------------------
 -                                                                             -
 -                      DBCSR MESSAGE PASSING PERFORMANCE                      -
 -                                                                             -
 -------------------------------------------------------------------------------
 ROUTINE             CALLS      AVE VOLUME [Bytes]
 MP_Bcast                1                     12.
 MP_Allreduce        36619                      8.
 MP_Alltoall        549840                  11987.
 -------------------------------------------------------------------------------

 -------------------------------------------------------------------------------
 -                                                                             -
 -                                DBM STATISTICS                               -
 -                                                                             -
 -------------------------------------------------------------------------------
    M  x    N  x    K                                          COUNT     PERCENT
 -------------------------------------------------------------------------------

 -------------------------------------------------------------------------------
 -                                                                             -
 -                                GRID STATISTICS                              -
 -                                                                             -
 -------------------------------------------------------------------------------
 LP    KERNEL             BACKEND                              COUNT     PERCENT
 5     collocate general  CPU                                 814656      24.18%
 5     integrate general  CPU                                 763740      22.67%
 6     collocate general  CPU                                 571968      16.98%
 6     integrate general  CPU                                 536220      15.92%
 4     collocate general  CPU                                 311072       9.23%
 4     integrate general  CPU                                 291630       8.66%
 8     integrate general  CPU                                  38012       1.13%
 9     integrate general  CPU                                  26668       0.79%
 7     integrate general  CPU                                  14522       0.43%
 0     collocate general  CPU                                     48       0.00%
 3     integrate general  CPU                                     36       0.00%
 -------------------------------------------------------------------------------

 MEMORY| Estimated peak process memory [MiB]                                 409

 -------------------------------------------------------------------------------
 -                                                                             -
 -                         MESSAGE PASSING PERFORMANCE                         -
 -                                                                             -
 -------------------------------------------------------------------------------

 ROUTINE             CALLS      AVE VOLUME [Bytes]
 MP_Group               16
 MP_Bcast           237432                   2058.
 MP_Allreduce        18849                    206.
 MP_Sync                15
 MP_Alltoall          1393                2778813.
 MP_SendRecv          4860                 150216.
 MP_ISendRecv         4770                 149045.
 MP_Wait            172764
 MP_comm_split           2
 MP_ISend           228582                   4419.
 MP_IRecv           356400                   3235.
 -------------------------------------------------------------------------------


 -------------------------------------------------------------------------------
 -                                                                             -
 -                           R E F E R E N C E S                               -
 -                                                                             -
 -------------------------------------------------------------------------------
 
 CP2K version 2024.3, the CP2K developers group (2024).
 CP2K is freely available from https://www.cp2k.org/ .
 
 T. D. Kuehne, M. Iannuzzi, M. Del Ben, V. V. Rybkin, P. Seewald, F. Stein, T. 
 Laino, R. Z. Khaliullin, O. Schuett, F. Schiffmann, D. Golze, J. Wilhelm, S. 
 Chulkov, M. H. Bani-Hashemian, V. Weber, U. Borstnik, M. Taillefumier, A. S. 
 Jakobovits, A. Lazzaro, H. Pabst, T. Mueller, R. Schade, M. Guidon, S. 
 Andermatt, N. Holmberg, G. K. Schenter, A. Hehn, A. Bussy, F. Belleflamme, G. 
 Tabacchi, A. Gloess, M. Lass, I. Bethune, C. J. Mundy, C. Plessl, M. Watkins, 
 J. VandeVondele, M. Krack, J. Hutter.
 J. Chem. Phys. 152, 194103 (2020).
 CP2K: An electronic structure and molecular dynamics software package - 
 Quickstep: Efficient and accurate electronic structure calculations.
 https://doi.org/10.1063/5.0007045

 A. Togo, I. Tanaka.
 arXiv, 1808.01590 (2018).
 Spglib : a software library for crystal symmetry search.

 O. Schuett, P. Messmer, J. Hutter, J. VandeVondele.
 Electronic Structure Calculations on Graphics Processing Units, 173-190 (2016).
 GPU-Accelerated Sparse Matrix-Matrix Multiplication for Linear Scaling Density 
 Functional Theory.
 https://doi.org/10.1002/9781118670712.ch8

 A. Heinecke, G. Henry, M. Hutchinson, H. Pabst.
 Proceedings of Intl. Supercomputing Conference, 981-991 (2016).
 LIBXSMM: Accelerating Small Matrix Multiplications by Runtime Code Generation.
 https://doi.org/10.1109/SC.2016.83

 J. Hutter, M. Iannuzzi, F. Schiffmann, J. VandeVondele.
 WIREs Comput Mol Sci. 4, 15-25 (2014).
 CP2K: atomistic simulations of condensed matter systems.
 https://doi.org/10.1002/wcms.1159

 U. Borstnik, J. VandeVondele, V. Weber, J. Hutter.
 Parallel Comput. 40, 47-58 (2014).
 Sparse matrix multiplication: The distributed block-compressed sparse row 
 library.
 https://doi.org/10.1016/j.parco.2014.03.012

 A. Marek, V. Blum, R. Johanni, V. Havu, B. Lang, T. Auckenthaler, A. Heinecke, 
 H. Bungartz, H. Lederer.
 J. Phys. Condens. Matter 26, 213201 (2014).
 The ELPA library: scalable parallel eigenvalue solutions for electronic 
 structure theory and computational science.
 https://doi.org/10.1088/0953-8984/26/21/213201

 J. P. Perdew, A. Ruzsinszky, G. I. Csonka, O. A. Vydrov, G. E. Scuseria, L. A. 
 Constantin, X. Zhou, K. Burke.
 Phys. Rev. Lett. 100, 136406-136409 (2008).
 Restoring the Density-Gradient Expansion for Exchange in Solids and Surfaces.
 https://doi.org/10.1103/PhysRevLett.100.136406

 J. VandeVondele, J. Hutter.
 J. Chem. Phys. 127, 114105 (2007).
 Gaussian basis sets for accurate calculations on molecular systems in gas and 
 condensed phases.
 https://doi.org/10.1063/1.2770708

 J. VandeVondele, M. Krack, F. Mohamed, M. Parrinello, T. Chassaing, J. Hutter.
 Comput. Phys. Commun. 167, 103-128 (2005).
 QUICKSTEP: Fast and accurate density functional calculations using a mixed 
 Gaussian and plane waves approach.
 https://doi.org/10.1016/j.cpc.2004.12.014

 M. Krack.
 Theor. Chem. Acc. 114, 145-152 (2005).
 Pseudopotentials for H to Kr optimized for gradient-corrected 
 exchange-correlation functionals.
 https://doi.org/10.1007/s00214-005-0655-y

 M. Frigo, S. G. Johnson.
 Proc. IEEE 93, 216-231 (2005).
 The design and implementation of FFTW3.
 https://doi.org/10.1109/JPROC.2004.840301

 C. Hartwigsen, S. Goedecker, J. Hutter.
 Phys. Rev. B 58, 3641-3662 (1998).
 Relativistic separable dual-space Gaussian pseudopotentials from H to Rn.
 https://doi.org/10.1103/PhysRevB.58.3641

 G. Lippert, J. Hutter, M. Parrinello.
 Mol. Phys. 92, 477-487 (1997).
 A hybrid Gaussian and plane wave density functional scheme.
 https://doi.org/10.1080/002689797170220

 S. Goedecker, M. Teter, J. Hutter.
 Phys. Rev. B 54, 1703-1710 (1996).
 Separable dual-space Gaussian pseudopotentials.
 https://doi.org/10.1103/PhysRevB.54.1703

 J. P. Perdew, K. Burke, M. Ernzerhof.
 Phys. Rev. Lett. 77, 3865-3868 (1996).
 Generalized gradient approximation made simple.
 https://doi.org/10.1103/PhysRevLett.77.3865

 R. H. Byrd, P. H. Lu, J. Nocedal, C. Y. Zhu.
 SIAM J. Sci. Comput. 16, 1190-1208 (1995).
 A Limited Memory Algorithm for Bound Constrained Optimization.
 https://doi.org/10.1137/0916069


 -------------------------------------------------------------------------------
 -                                                                             -
 -                                T I M I N G                                  -
 -                                                                             -
 -------------------------------------------------------------------------------
 SUBROUTINE                       CALLS  ASD         SELF TIME        TOTAL TIME
                                MAXIMUM       AVERAGE  MAXIMUM  AVERAGE  MAXIMUM
 CP2K                                 1  1.0    0.932    0.935  136.197  136.197
 cp_cell_opt                          1  2.0    0.001    0.001  134.725  134.725
 geoopt_lbfgs                         1  3.0    0.000    0.000  134.724  134.725
 cp_eval_at                           4  4.8    0.001    0.001  134.710  134.710
 qs_energies                          4  6.5    0.005    0.005  131.629  131.630
 scf_env_do_scf                       4  7.5    0.000    0.000  128.949  128.952
 scf_env_do_scf_inner_loop           60  8.5    0.016    0.022  128.949  128.952
 qs_scf_new_mos_kp                   60  9.5    0.001    0.001  112.321  115.959
 do_general_diag_kp                  60 10.5    0.124    0.132  112.320  115.958
 cp_opt_gopt_step                     1  4.0    0.001    0.004  102.160  102.161
 qs_forces                            3  6.0    0.002    0.002  102.146  102.146
 cp_cfm_geeig                      1620 11.5    0.014    0.014   54.709   55.516
 cp_cfm_heevd                      1620 12.5   36.796   37.815   36.796   37.815
 mp_alltoall_i22                  93692 13.3   15.207   30.899   15.207   30.899
 dbcsr_desymmetrize_deep          53002 12.0    0.933    1.089   15.004   26.553
 dbcsr_complete_redistribute      40690 12.8    1.760    1.878   13.424   17.609
 kpoint_density_transform            63 11.4    0.052    0.058   16.838   16.927
 rskp_transform                   12960 11.5    8.677   14.555    8.677   14.555
 copy_dbcsr_to_fm                 27082 11.5    0.235    0.243   12.740   13.146
 cp_cfm_triangular_multiply        4860 12.5    9.814   11.445    9.814   11.445
 rebuild_ks_matrix                   63 10.4    0.001    0.001    7.552   10.943
 qs_ks_build_kohn_sham_matrix        63 11.4    0.033    0.035    7.551   10.942
 copy_fm_to_dbcsr                 13608 12.4    0.073    0.078    6.730   10.760
 qs_ks_update_qs_env                 60  9.5    0.001    0.001    6.981    9.832
 cp_fm_start_copy_general         39528 11.8    2.081    2.557    9.377    9.528
 sum_up_and_integrate                63 12.4    0.001    0.001    5.726    9.106
 integrate_v_rspace                  63 13.4    0.028    0.040    5.723    9.102
 grid_integrate_task_list            63 14.4    4.972    8.350    4.972    8.350
 transform_dmat                    6804 12.4    4.567    7.644    4.567    7.644
 qs_rho_update_rho_low               64  9.5    0.000    0.001    7.526    7.543
 calculate_rho_elec                  64 10.5    0.035    0.046    7.525    7.543
 grid_collocate_task_list            64 11.5    4.356    6.652    4.356    6.652
 transfer_rs2pw                     324 12.5    0.003    0.004    3.039    6.431
 mp_allgather_i                   79056 12.8    6.069    6.355    6.069    6.355
 transfer_rs2pw_500                  68 13.4    0.157    0.160    2.905    6.317
 density_rs2pw                       64 11.5    0.003    0.003    3.123    6.242
 mp_sendrecv_dv                    4860 14.5    2.832    6.227    2.832    6.227
 cp_cfm_cholesky_decompose         1620 12.5    5.213    6.091    5.213    6.091
 kpoint_density_matrices             63 11.4    0.028    0.030    3.250    3.302
 parallel_gemm_fm                  6804 12.4    0.006    0.006    3.213    3.263
 parallel_gemm_fm_cosma            6804 13.4    3.207    3.257    3.207    3.257
 mp_alltoall_d11v                281076 13.9    2.342    2.731    2.342    2.731
 -------------------------------------------------------------------------------

 The number of warnings for this run is : 0
 
 -------------------------------------------------------------------------------
  **** **** ******  **  PROGRAM ENDED AT                 2026-08-20 02:49:55.418
 ***** ** ***  *** **   PROGRAM RAN ON                                 nid001767
 **    ****   ******    PROGRAM RAN BY                                    agne_r
 ***** **    ** ** **   PROGRAM PROCESS ID                                132680
  **** **  *******  **  PROGRAM STOPPED IN /mnt/lustre/a2fs-work3/work/e89/e89/a
                                           gne_r/Crystalline_HfO2_Interfaces/Cla
                                           ude/Reference_cell_reopt/m-HfO2
