      12
 i =        1, E =      -325.5976334157
 Hf         1.2220981565        2.7858378404        1.0751335014
 Hf         2.9960295355        2.3567549054        4.0762138333
 Hf         3.4150876217        0.2145414686        1.5005401672
 Hf         0.8030400692        4.9280512774        3.6508071674
  O        -0.3343426846        3.3953856340        4.3241333539
  O         4.5524703767        1.7472071114        0.8272139808
  O         4.1334122886        0.8240892614        3.4028876485
  O         0.0847154041        4.3185034832        1.7484596866
  O         1.4423777978        1.2428276496        5.0507018478
  O         2.7757498935        3.8997650954        0.1006454858
  O         2.3566918069        3.8141240225        2.6763191534
  O         1.8614358847        1.3284687232        2.4750281818
      12
 i =        2, E =      -325.5976334424
 Hf         1.2220981565        2.7858378404        1.0751335014
 Hf         2.9960295355        2.3567549054        4.0762138333
 Hf         3.4150876217        0.2145414686        1.5005401672
 Hf         0.8030400692        4.9280512774        3.6508071674
  O        -0.3343426846        3.3953856340        4.3241333539
  O         4.5524703767        1.7472071114        0.8272139808
  O         4.1334122886        0.8240892614        3.4028876485
  O         0.0847154041        4.3185034832        1.7484596866
  O         1.4423777978        1.2428276496        5.0507018478
  O         2.7757498935        3.8997650954        0.1006454858
  O         2.3566918069        3.8141240225        2.6763191534
  O         1.8614358847        1.3284687232        2.4750281818
