       5
 i =        1, E =      -137.0826187208
 Sr        -0.0000000000       -0.0000000000       -0.0000000000
 Ti         1.9507403386        1.9507403271        1.9507403802
  O         1.9507403386        1.9507403271        0.0000000000
  O         1.9507403386        0.0000000000        1.9507403802
  O         0.0000000000        1.9507403271        1.9507403802
       5
 i =        2, E =      -137.0826187227
 Sr        -0.0000000000       -0.0000000000       -0.0000000000
 Ti         1.9507403386        1.9507403271        1.9507403802
  O         1.9507403386        1.9507403271        0.0000000000
  O         1.9507403386        0.0000000000        1.9507403802
  O         0.0000000000        1.9507403271        1.9507403802
