Hf O 
 1.0000000000000000
    17.4377525157343598    0.0000000000000000    0.0000000000000011
     3.4875505031468674   19.1815277673077951    0.0000000000000012
     0.0000000000000000    0.0000000000000000   46.9070585703796752
 Hf  O  
 160 320
Direct
  0.6112528853017244  0.4085046433871484  0.7593486487492174
  0.6049179995627879  0.4454123176417927  0.5601451967909102
  0.9799179995627885  0.3204123176417925  0.5601451967909102
  0.4176657876378188  0.4744583819605346  0.5636802412660180
  0.6676657876378184  0.7244583819605346  0.5636802412660180
  0.0426657876378189  0.5994583819605346  0.5636802412660182
  0.5426657876378189  0.0994583819605346  0.5636802412660179
  0.9176657876378188  0.9744583819605345  0.5636802412660181
  0.1049179995627879  0.9454123176417927  0.5601451967909102
  0.2926657876378187  0.8494583819605347  0.5636802412660180
  0.1676657876378184  0.2244583819605345  0.5636802412660181
  0.1086866312588721  0.4277322370436455  0.5690206302941412
  0.3586866312588722  0.6777322370436453  0.5690206302941413
  0.7336866312588726  0.5527322370436453  0.5690206302941413
  0.2336866312588718  0.0527322370436452  0.5690206302941412
  0.6086866312588719  0.9277322370436453  0.5690206302941411
  0.9836866312588719  0.8027322370436452  0.5690206302941413
  0.7926657876378187  0.3494583819605345  0.5636802412660182
  0.4836866312588722  0.3027322370436450  0.5690206302941414
  0.7299179995627880  0.0704123176417924  0.5601451967909100
  0.8549179995627878  0.6954123176417923  0.5601451967909101
  0.5274649265051843  0.4987630122920971  0.6354217809469104
  0.0274649265051840  0.9987630122920973  0.6354217809469104
  0.4024649265051843  0.8737630122920972  0.6354217809469102
  0.7774649265051841  0.7487630122920970  0.6354217809469104
  0.2774649265051843  0.2487630122920971  0.6354217809469105
  0.6524649265051843  0.1237630122920970  0.6354217809469100
  0.3326764486644596  0.5631689851180258  0.6212059762195549
  0.3549179995627880  0.1954123176417927  0.5601451967909102
  0.5826764486644600  0.8131689851180256  0.6212059762195549
  0.4576764486644603  0.1881689851180258  0.6212059762195550
  0.8326764486644596  0.0631689851180255  0.6212059762195550
  0.2076764486644597  0.9381689851180257  0.6212059762195551
  0.7076764486644597  0.4381689851180257  0.6212059762195549
  0.0826764486644600  0.3131689851180258  0.6212059762195549
  0.2299179995627880  0.5704123176417927  0.5601451967909102
  0.4799179995627879  0.8204123176417925  0.5601451967909102
  0.9576764486644597  0.6881689851180258  0.6212059762195550
  0.8586866312588718  0.1777322370436450  0.5690206302941412
  0.5388981534181471  0.6171382098695738  0.5548048255667860
  0.7888981534181477  0.8671382098695738  0.5548048255667858
  0.3738874923915061  0.2784276067120829  0.4972790906132491
  0.3149083360125598  0.4817014617951934  0.5026194796413721
  0.5649083360125599  0.7317014617951931  0.5026194796413721
  0.9399083360125596  0.6067014617951930  0.5026194796413724
  0.4399083360125596  0.1067014617951934  0.5026194796413724
  0.8149083360125599  0.9817014617951932  0.5026194796413722
  0.1899083360125599  0.8567014617951931  0.5026194796413721
  0.9988874923915061  0.4034276067120827  0.4972790906132492
  0.6899083360125597  0.3567014617951935  0.5026194796413723
  0.7451198581718355  0.6711074346211220  0.4884036749140169
  0.9951198581718352  0.9211074346211219  0.4884036749140169
  0.3701198581718353  0.7961074346211218  0.4884036749140169
  0.8701198581718355  0.2961074346211220  0.4884036749140169
  0.2451198581718353  0.1711074346211219  0.4884036749140169
  0.6201198581718351  0.0461074346211219  0.4884036749140169
  0.1201198581718357  0.5461074346211220  0.4884036749140169
  0.0649083360125600  0.2317014617951935  0.5026194796413723
  0.4988874923915070  0.9034276067120827  0.4972790906132490
  0.1238874923915060  0.0284276067120828  0.4972790906132489
  0.7488874923915059  0.1534276067120828  0.4972790906132492
  0.1638981534181476  0.7421382098695738  0.5548048255667860
  0.6638981534181475  0.2421382098695740  0.5548048255667861
  0.0388981534181472  0.1171382098695737  0.5548048255667859
  0.4138981534181470  0.9921382098695736  0.5548048255667860
  0.9138981534181475  0.4921382098695738  0.5548048255667860
  0.2888981534181475  0.3671382098695738  0.5548048255667861
  0.4361397043164760  0.6243815423933408  0.4937440461381410
  0.6861397043164759  0.8743815423933409  0.4937440461381409
  0.0611397043164761  0.7493815423933405  0.4937440461381412
  0.5611397043164759  0.2493815423933409  0.4937440461381412
  0.9361397043164762  0.1243815423933406  0.4937440461381412
  0.3111397043164755  0.9993815423933408  0.4937440461381413
  0.8111397043164762  0.4993815423933406  0.4937440461381412
  0.1861397043164752  0.3743815423933409  0.4937440461381412
  0.6238874923915062  0.5284276067120824  0.4972790906132492
  0.8738874923915064  0.7784276067120827  0.4972790906132491
  0.2488874923915062  0.6534276067120828  0.4972790906132492
  0.1524649265051843  0.6237630122920971  0.6354217809469105
  0.9024649265051843  0.3737630122920970  0.6354217809469104
  0.4951198581718354  0.4211074346211220  0.4884036749140169
  0.5864440828841310  0.2954891572089864  0.6300813919187871
  0.9614440828841307  0.1704891572089864  0.6300813919187871
  0.8650215169978083  0.1408245627890009  0.7682240822524484
  0.2400215169978085  0.0158245627890006  0.7682240822524484
  0.9202330391570841  0.4552305356149296  0.7540082775250930
  0.1702330391570839  0.7052305356149295  0.7540082775250930
  0.5452330391570840  0.5802305356149297  0.7540082775250930
  0.0452330391570841  0.0802305356149296  0.7540082775250929
  0.9900215169978086  0.7658245627890007  0.7682240822524484
  0.4202330391570842  0.9552305356149295  0.7540082775250930
  0.2952330391570844  0.3302305356149296  0.7540082775250929
  0.6702330391570841  0.2052305356149297  0.7540082775250930
  0.8174745900554119  0.4624738681386963  0.6929474980964485
  0.0674745900554121  0.7124738681386964  0.6929474980964485
  0.4424745900554123  0.5874738681386962  0.6929474980964485
  0.9424745900554121  0.0874738681386964  0.6929474980964484
  0.3174745900554124  0.9624738681386964  0.6929474980964485
  0.7952330391570841  0.8302305356149293  0.7540082775250930
  0.6924745900554125  0.8374738681386965  0.6929474980964485
  0.6150215169978083  0.8908245627890009  0.7682240822524484
  0.7400215169978078  0.5158245627890009  0.7682240822524484
  0.8612528853017241  0.6585046433871483  0.7593486487492171
  0.2362528853017244  0.5335046433871482  0.7593486487492174
  0.7362528853017246  0.0335046433871483  0.7593486487492170
  0.1112528853017245  0.9085046433871483  0.7593486487492175
  0.4862528853017246  0.7835046433871483  0.7593486487492175
  0.9862528853017248  0.2835046433871480  0.7593486487492174
  0.3612528853017244  0.1585046433871483  0.7593486487492170
  0.1150215169978083  0.3908245627890008  0.7682240822524484
  0.7990006733767550  0.3125507077058904  0.7628836932243250
  0.4240006733767550  0.4375507077058904  0.7628836932243250
  0.9240006733767550  0.9375507077058904  0.7628836932243250
  0.2990006733767550  0.8125507077058902  0.7628836932243250
  0.6740006733767552  0.6875507077058903  0.7628836932243255
  0.1740006733767553  0.1875507077058903  0.7628836932243254
  0.5490006733767550  0.0625507077058903  0.7628836932243250
  0.4900215169978083  0.2658245627890007  0.7682240822524484
  0.0490006733767552  0.5625507077058903  0.7628836932243250
  0.1924745900554123  0.3374738681386965  0.6929474980964485
  0.3650215169978084  0.6408245627890008  0.7682240822524484
  0.0052223781304428  0.3665199324574384  0.6964825425715564
  0.5014547439107719  0.3841997603664777  0.6876071268723241
  0.8764547439107717  0.2591997603664776  0.6876071268723241
  0.0236962948091004  0.5164430928902446  0.6265463474436793
  0.2736962948090997  0.7664430928902445  0.6265463474436792
  0.6486962948091000  0.6414430928902441  0.6265463474436792
  0.1486962948090999  0.1414430928902444  0.6265463474436791
  0.5236962948091005  0.0164430928902444  0.6265463474436791
  0.0014547439107719  0.8841997603664775  0.6876071268723241
  0.8986962948091001  0.8914430928902446  0.6265463474436790
  0.7736962948090997  0.2664430928902445  0.6265463474436792
  0.2114440828841306  0.4204891572089865  0.6300813919187873
  0.4614440828841309  0.6704891572089864  0.6300813919187871
  0.8364440828841304  0.5454891572089866  0.6300813919187873
  0.3364440828841307  0.0454891572089864  0.6300813919187871
  0.7114440828841306  0.9204891572089864  0.6300813919187870
  0.5674745900554122  0.2124738681386965  0.6929474980964485
  0.3986962948091002  0.3914430928902446  0.6265463474436793
  0.6264547439107719  0.0091997603664778  0.6876071268723241
  0.0864440828841306  0.7954891572089865  0.6300813919187871
  0.7514547439107720  0.6341997603664778  0.6876071268723241
  0.2514547439107719  0.1341997603664776  0.6876071268723241
  0.6302223781304430  0.4915199324574385  0.6964825425715564
  0.1302223781304427  0.9915199324574384  0.6964825425715562
  0.5052223781304425  0.8665199324574383  0.6964825425715562
  0.8802223781304428  0.7415199324574383  0.6964825425715562
  0.3802223781304429  0.2415199324574383  0.6964825425715564
  0.7552223781304420  0.1165199324574385  0.6964825425715562
  0.6962432217514960  0.3197937875405492  0.7018229315996796
  0.2552223781304428  0.6165199324574384  0.6964825425715564
  0.3212432217514961  0.4447937875405489  0.7018229315996796
  0.8212432217514961  0.9447937875405490  0.7018229315996796
  0.1962432217514962  0.8197937875405489  0.7018229315996796
  0.5712432217514962  0.6947937875405488  0.7018229315996796
  0.0712432217514962  0.1947937875405491  0.7018229315996795
  0.4462432217514959  0.0697937875405488  0.7018229315996796
  0.1264547439107721  0.5091997603664777  0.6876071268723241
  0.9462432217514958  0.5697937875405490  0.7018229315996796
  0.3764547439107720  0.7591997603664776  0.6876071268723241
  0.9676197919750870  0.1468451611662665  0.5880314379524578
  0.5926197919750872  0.2718451611662666  0.5880314379524578
  0.0926197919750869  0.7718451611662664  0.5880314379524579
  0.7176197919750866  0.8968451611662667  0.5880314379524575
  0.3426197919750870  0.0218451611662669  0.5880314379524577
  0.8426197919750866  0.5218451611662667  0.5880314379524577
  0.4676197919750871  0.6468451611662667  0.5880314379524577
  0.0159544472068880  0.8958752298999427  0.5665150659133550
  0.8909544472068875  0.2708752298999427  0.5665150659133550
  0.5159544472068881  0.3958752298999427  0.5665150659133551
  0.6409544472068880  0.0208752298999424  0.5665150659133547
  0.2659544472068880  0.1458752298999429  0.5665150659133548
  0.7659544472068878  0.6458752298999424  0.5665150659133550
  0.3909544472068878  0.7708752298999427  0.5665150659133550
  0.4299642033518802  0.6480249434469939  0.5357940140151073
  0.2176197919750871  0.3968451611662665  0.5880314379524578
  0.6799642033518803  0.8980249434469937  0.5357940140151068
  0.5080218547184735  0.0082918719209487  0.5800043681061561
  0.5549642033518805  0.2730249434469941  0.5357940140151074
  0.7645621896916489  0.1615787846392285  0.5438212707115401
  0.3895621896916489  0.2865787846392286  0.5438212707115403
  0.8895621896916489  0.7865787846392284  0.5438212707115400
  0.5145621896916492  0.9115787846392286  0.5438212707115402
  0.2645621896916487  0.6615787846392286  0.5438212707115404
  0.1330218547184740  0.1332918719209484  0.5800043681061559
  0.7580218547184739  0.2582918719209485  0.5800043681061563
  0.0549642033518798  0.7730249434469936  0.5357940140151074
  0.2580218547184739  0.7582918719209486  0.5800043681061561
  0.0080218547184736  0.5082918719209484  0.5800043681061563
  0.6330218547184739  0.6332918719209485  0.5800043681061563
  0.3830218547184739  0.3832918719209485  0.5800043681061561
  0.1799642033518802  0.3980249434469940  0.5357940140151074
  0.8049642033518800  0.5230249434469939  0.5357940140151073
  0.3049642033518807  0.0230249434469941  0.5357940140151072
  0.9299642033518808  0.1480249434469941  0.5357940140151072
  0.8830218547184744  0.8832918719209484  0.5800043681061557
  0.1409544472068878  0.5208752298999425  0.5665150659133551
  0.4268001499647860  0.5793226471694003  0.6464055187589253
  0.8816292740677986  0.3989955903537748  0.5573106671825037
  0.1420497245792205  0.5150284696845365  0.6423701740484818
  0.8083404849379615  0.3576095598876804  0.6102224213643093
  0.4333404849379611  0.4826095598876804  0.6102224213643095
  0.9333404849379614  0.9826095598876804  0.6102224213643092
  0.5583404849379617  0.1076095598876803  0.6102224213643092
  0.1833404849379612  0.2326095598876804  0.6102224213643094
  0.6833404849379612  0.7326095598876802  0.6102224213643093
  0.3920497245792208  0.7650284696845366  0.6423701740484818
  0.3083404849379611  0.8576095598876803  0.6102224213643093
  0.9268001499647858  0.0793226471694005  0.6464055187589252
  0.5518001499647861  0.2043226471694005  0.6464055187589254
  0.0518001499647860  0.7043226471694004  0.6464055187589253
  0.6768001499647861  0.8293226471694003  0.6464055187589253
  0.3018001499647860  0.9543226471694004  0.6464055187589253
  0.8018001499647860  0.4543226471694004  0.6464055187589253
  0.1395621896916495  0.0365787846392288  0.5438212707115401
  0.0583404849379612  0.6076095598876804  0.6102224213643095
  0.7670497245792210  0.6400284696845366  0.6423701740484818
  0.2670497245792205  0.1400284696845365  0.6423701740484818
  0.6420497245792210  0.0150284696845367  0.6423701740484817
  0.3816292740677989  0.8989955903537750  0.5573106671825035
  0.0066292740677988  0.0239955903537752  0.5573106671825037
  0.6316292740677990  0.1489955903537750  0.5573106671825034
  0.1316292740677991  0.6489955903537752  0.5573106671825037
  0.7566292740677989  0.7739955903537750  0.5573106671825038
  0.5066292740677983  0.5239955903537750  0.5573106671825038
  0.8430910409162715  0.1719037664308581  0.6142578996159883
  0.4680910409162716  0.2969037664308583  0.6142578996159885
  0.9680910409162714  0.7969037664308581  0.6142578996159882
  0.5930910409162715  0.9219037664308581  0.6142578996159884
  0.2180910409162717  0.0469037664308581  0.6142578996159883
  0.7180910409162713  0.5469037664308580  0.6142578996159885
  0.3430910409162716  0.6719037664308580  0.6142578996159885
  0.0930910409162713  0.4219037664308581  0.6142578996159885
  0.8920497245792209  0.2650284696845365  0.6423701740484818
  0.5170497245792210  0.3900284696845365  0.6423701740484818
  0.0170497245792205  0.8900284696845364  0.6423701740484818
  0.2566292740677988  0.2739955903537752  0.5573106671825037
  0.6395621896916490  0.5365787846392285  0.5438212707115403
  0.7988414967287742  0.3258143859178145  0.5216302872996890
  0.3482714293329087  0.5689976944360845  0.5759690233957128
  0.0957838944453373  0.8405480093907766  0.4774201200587711
  0.7207838944453371  0.9655480093907765  0.4774201200587712
  0.4707838944453372  0.7155480093907767  0.4774201200587713
  0.3392435594721619  0.1872610966724966  0.5136032174533871
  0.9642435594721619  0.3122610966724967  0.5136032174533872
  0.4642435594721618  0.8122610966724965  0.5136032174533871
  0.0892435594721617  0.9372610966724967  0.5136032174533870
  0.5957838944453370  0.3405480093907768  0.4774201200587711
  0.7142435594721617  0.0622610966724966  0.5136032174533871
  0.8392435594721620  0.6872610966724965  0.5136032174533871
  0.5892435594721613  0.4372610966724965  0.5136032174533870
  0.3861859081055681  0.4519941681985419  0.4693928633623382
  0.0111859081055674  0.5769941681985420  0.4693928633623383
  0.5111859081055682  0.0769941681985420  0.4693928633623382
  0.1361859081055674  0.2019941681985424  0.4693928633623383
  0.7611859081055685  0.3269941681985423  0.4693928633623382
  0.2142435594721616  0.5622610966724965  0.5136032174533870
  0.2611859081055674  0.8269941681985418  0.4693928633623382
  0.9707838944453372  0.2155480093907768  0.4774201200587713
  0.8457838944453370  0.5905480093907766  0.4774201200587713
  0.1768001499647860  0.3293226471694003  0.6464055187589252
  0.3805344504236469  0.9048422159339544  0.4814555983104504
  0.0055344504236472  0.0298422159339543  0.4814555983104504
  0.6305344504236478  0.1548422159339542  0.4814555983104502
  0.1305344504236468  0.6548422159339542  0.4814555983104504
  0.7555344504236472  0.7798422159339542  0.4814555983104504
  0.5055344504236472  0.5298422159339543  0.4814555983104504
  0.3457838944453370  0.0905480093907767  0.4774201200587712
  0.3044931340865967  0.3729669191876329  0.5095678727429438
  0.4294931340865968  0.9979669191876328  0.5095678727429437
  0.0544931340865968  0.1229669191876328  0.5095678727429436
  0.6794931340865966  0.2479669191876329  0.5095678727429438
  0.1794931340865971  0.7479669191876328  0.5095678727429437
  0.8044931340865966  0.8729669191876329  0.5095678727429435
  0.5544931340865970  0.6229669191876327  0.5095678727429437
  0.2207838944453372  0.4655480093907763  0.4774201200587713
  0.9294931340865970  0.4979669191876325  0.5095678727429438
  0.8861859081055680  0.9519941681985417  0.4693928633623381
  0.6361859081055679  0.7019941681985419  0.4693928633623382
  0.1738414967287751  0.2008143859178150  0.5216302872996885
  0.7128509788214864  0.5779648151053232  0.4909095165297346
  0.0493127456699595  0.2258729911824063  0.5478567489632196
  0.6743127456699598  0.3508729911824065  0.5478567489632192
  0.1743127456699593  0.8508729911824063  0.5478567489632195
  0.7993127456699595  0.9758729911824062  0.5478567489632196
  0.4243127456699596  0.1008729911824063  0.5478567489632193
  0.9243127456699596  0.6008729911824062  0.5478567489632195
  0.9628509788214863  0.8279648151053229  0.4909095165297346
  0.5493127456699595  0.7258729911824061  0.5478567489632195
  0.0982714293329089  0.3189976944360850  0.5759690233957129
  0.7232714293329084  0.4439976944360846  0.5759690233957128
  0.2232714293329082  0.9439976944360847  0.5759690233957128
  0.8482714293329084  0.0689976944360844  0.5759690233957127
  0.4732714293329087  0.1939976944360847  0.5759690233957127
  0.9732714293329088  0.6939976944360846  0.5759690233957125
  0.5982714293329090  0.8189976944360847  0.5759690233957125
  0.2993127456699592  0.4758729911824063  0.5478567489632195
  0.3378509788214868  0.7029648151053234  0.4909095165297346
  0.8378509788214865  0.2029648151053232  0.4909095165297346
  0.2128509788214860  0.0779648151053230  0.4909095165297346
  0.2988414967287745  0.8258143859178145  0.5216302872996889
  0.9238414967287745  0.9508143859178144  0.5216302872996886
  0.5488414967287752  0.0758143859178147  0.5216302872996885
  0.0488414967287744  0.5758143859178145  0.5216302872996887
  0.6738414967287748  0.7008143859178148  0.5216302872996887
  0.4238414967287750  0.4508143859178147  0.5216302872996887
  0.0971761519605749  0.3248444546514907  0.5001139152605860
  0.7221761519605758  0.4498444546514909  0.5001139152605860
  0.2221761519605760  0.9498444546514908  0.5001139152605859
  0.8471761519605755  0.0748444546514906  0.5001139152605858
  0.4721761519605762  0.1998444546514907  0.5001139152605858
  0.9721761519605762  0.6998444546514905  0.5001139152605857
  0.5971761519605759  0.8248444546514907  0.5001139152605859
  0.3471761519605758  0.5748444546514907  0.5001139152605858
  0.4628509788214863  0.3279648151053233  0.4909095165297346
  0.0878509788214865  0.4529648151053230  0.4909095165297348
  0.5878509788214863  0.9529648151053230  0.4909095165297346
  0.0145621896916497  0.4115787846392286  0.5438212707115403
  0.9737424985981924  0.3440557186954459  0.6021951646678761
  0.4785110376995123  0.1629367803968463  0.6993173672188928
  0.0987424985981924  0.9690557186954459  0.6021951646678761
  0.4796063150718451  0.1570900201814405  0.7751724753540199
  0.1046063150718453  0.2820900201814404  0.7751724753540199
  0.6046063150718447  0.7820900201814404  0.7751724753540200
  0.2296063150718450  0.9070900201814404  0.7751724753540200
  0.8546063150718451  0.0320900201814405  0.7751724753540199
  0.3546063150718453  0.5320900201814404  0.7751724753540199
  0.9796063150718451  0.6570900201814402  0.7751724753540199
  0.6806476314088956  0.3139653169277621  0.7470602009215266
  0.7296063150718451  0.4070900201814404  0.7751724753540200
  0.0208970754305857  0.3746711103845843  0.7430247226698473
  0.5208970754305854  0.8746711103845842  0.7430247226698474
  0.1458970754305857  0.9996711103845843  0.7430247226698474
  0.7708970754305852  0.1246711103845844  0.7430247226698473
  0.2708970754305856  0.6246711103845841  0.7430247226698476
  0.8958970754305853  0.7496711103845840  0.7430247226698474
  0.6458970754305853  0.4996711103845842  0.7430247226698474
  0.3958970754305857  0.2496711103845843  0.7430247226698473
  0.5143567404574099  0.9713841976663041  0.7792078200644632
  0.9306476314088954  0.5639653169277620  0.7470602009215266
  0.8056476314088956  0.9389653169277619  0.7470602009215266
  0.8535110376995122  0.0379367803968465  0.6993173672188928
  0.3535110376995121  0.5379367803968462  0.6993173672188933
  0.9785110376995122  0.6629367803968464  0.6993173672188933
  0.7285110376995121  0.4129367803968464  0.6993173672188933
  0.8441858645604227  0.1660571408506791  0.6901129684880420
  0.4691858645604228  0.2910571408506789  0.6901129684880418
  0.9691858645604229  0.7910571408506787  0.6901129684880418
  0.3056476314088960  0.4389653169277619  0.7470602009215266
  0.5941858645604224  0.9160571408506789  0.6901129684880418
  0.7191858645604228  0.5410571408506788  0.6901129684880418
  0.3441858645604230  0.6660571408506789  0.6901129684880418
  0.0941858645604230  0.4160571408506789  0.6901129684880418
  0.4306476314088957  0.0639653169277619  0.7470602009215267
  0.0556476314088963  0.1889653169277621  0.7470602009215266
  0.5556476314088955  0.6889653169277621  0.7470602009215266
  0.1806476314088959  0.8139653169277619  0.7470602009215266
  0.2191858645604228  0.0410571408506789  0.6901129684880418
  0.2285110376995123  0.9129367803968462  0.6993173672188933
  0.1393567404574101  0.0963841976663041  0.7792078200644631
  0.2643567404574103  0.7213841976663042  0.7792078200644634
  0.2722893329458245  0.1089675556452983  0.7657185178716621
  0.8972893329458242  0.2339675556452986  0.7657185178716621
  0.3972893329458246  0.7339675556452984  0.7657185178716621
  0.0222893329458245  0.8589675556452981  0.7657185178716621
  0.6472893329458242  0.9839675556452985  0.7657185178716621
  0.1472893329458244  0.4839675556452982  0.7657185178716621
  0.7722893329458242  0.6089675556452983  0.7657185178716621
  0.5989546777140230  0.2349374869116224  0.7872348899107648
  0.5222893329458242  0.3589675556452984  0.7657185178716621
  0.2629641598067349  0.2370879160991307  0.7565141191408107
  0.7629641598067347  0.7370879160991306  0.7565141191408108
  0.3879641598067347  0.8620879160991308  0.7565141191408107
  0.0129641598067349  0.9870879160991309  0.7565141191408107
  0.5129641598067348  0.4870879160991308  0.7565141191408107
  0.1379641598067348  0.6120879160991307  0.7565141191408107
  0.8879641598067350  0.3620879160991307  0.7565141191408107
  0.6379641598067349  0.1120879160991309  0.7565141191408107
  0.6393567404574100  0.5963841976663041  0.7792078200644632
  0.8489546777140233  0.4849374869116225  0.7872348899107650
  0.7239546777140234  0.8599374869116225  0.7872348899107650
  0.8893567404574101  0.8463841976663040  0.7792078200644632
  0.3893567404574101  0.3463841976663042  0.7792078200644634
  0.0143567404574101  0.4713841976663041  0.7792078200644634
  0.7643567404574099  0.2213841976663042  0.7792078200644634
  0.5612990890908166  0.2361172691923498  0.7349974659734142
  0.1862990890908169  0.3611172691923496  0.7349974659734142
  0.6862990890908169  0.8611172691923498  0.7349974659734143
  0.2239546777140235  0.3599374869116224  0.7872348899107648
  0.3112990890908172  0.9861172691923497  0.7349974659734143
  0.4362990890908167  0.6111172691923494  0.7349974659734143
  0.0612990890908167  0.7361172691923494  0.7349974659734142
  0.8112990890908166  0.4861172691923496  0.7349974659734143
  0.3489546777140233  0.9849374869116224  0.7872348899107650
  0.9739546777140237  0.1099374869116223  0.7872348899107650
  0.4739546777140235  0.6099374869116224  0.7872348899107650
  0.0989546777140236  0.7349374869116223  0.7872348899107648
  0.9362990890908168  0.1111172691923497  0.7349974659734143
  0.6035110376995125  0.7879367803968462  0.6993173672188931
  0.1035110376995125  0.2879367803968465  0.6993173672188933
  0.8805344504236473  0.4048422159339545  0.4814555983104504
  0.9347327424532001  0.4669060051483945  0.6329162165661241
  0.0504075693141108  0.2200263656022271  0.6237118178352727
  0.6754075693141109  0.3450263656022269  0.6237118178352726
  0.1754075693141112  0.8450263656022269  0.6237118178352726
  0.8004075693141109  0.9700263656022270  0.6237118178352725
  0.4254075693141108  0.0950263656022270  0.6237118178352727
  0.9254075693141105  0.5950263656022270  0.6237118178352729
  0.1847327424532001  0.7169060051483945  0.6329162165661241
  0.5504075693141107  0.7200263656022269  0.6237118178352729
  0.6368693361625840  0.1179345416793101  0.6806590502687574
  0.2618693361625836  0.2429345416793102  0.6806590502687576
  0.7618693361625833  0.7429345416793099  0.6806590502687577
  0.3868693361625832  0.8679345416793101  0.6806590502687575
  0.0118693361625839  0.9929345416793102  0.6806590502687573
  0.5118693361625835  0.4929345416793100  0.6806590502687575
  0.1368693361625836  0.6179345416793101  0.6806590502687576
  0.3004075693141108  0.4700263656022270  0.6237118178352730
  0.8868693361625831  0.3679345416793101  0.6806590502687577
  0.5597327424532003  0.5919060051483944  0.6329162165661241
  0.4347327424532005  0.9669060051483945  0.6329162165661238
  0.7237424985981924  0.0940557186954459  0.6021951646678763
  0.3487424985981922  0.2190557186954460  0.6021951646678765
  0.8487424985981924  0.7190557186954456  0.6021951646678763
  0.4737424985981922  0.8440557186954456  0.6021951646678761
  0.2237424985981922  0.5940557186954458  0.6021951646678764
  0.7613980872213992  0.0928759364147188  0.6544325886052269
  0.3863980872213991  0.2178759364147186  0.6544325886052268
  0.0597327424532001  0.0919060051483945  0.6329162165661241
  0.8863980872213990  0.7178759364147186  0.6544325886052266
  0.1363980872213989  0.9678759364147187  0.6544325886052268
  0.6363980872213989  0.4678759364147184  0.6544325886052268
  0.2613980872213990  0.5928759364147186  0.6544325886052268
  0.0113980872213992  0.3428759364147186  0.6544325886052268
  0.6847327424532000  0.2169060051483946  0.6329162165661241
  0.3097327424532004  0.3419060051483948  0.6329162165661238
  0.8097327424532003  0.8419060051483944  0.6329162165661240
  0.5113980872213989  0.8428759364147184  0.6544325886052268
  0.6858280198255331  0.2110592449329886  0.7087713247012506
  0.3108280198255333  0.3360592449329883  0.7087713247012510
  0.8108280198255328  0.8360592449329887  0.7087713247012507
  0.7675207938445042  0.2900864939438977  0.6685963153206452
  0.3925207938445045  0.4150864939438977  0.6685963153206452
  0.8925207938445047  0.9150864939438978  0.6685963153206449
  0.5175207938445052  0.0400864939438979  0.6685963153206450
  0.1425207938445047  0.1650864939438977  0.6685963153206450
  0.6425207938445046  0.6650864939438975  0.6685963153206452
  0.2675207938445045  0.7900864939438974  0.6685963153206452
  0.9705784452110985  0.2753534224178520  0.7128066694116942
  0.0175207938445045  0.5400864939438977  0.6685963153206452
  0.1801763824677113  0.1639067116631705  0.7208337392579960
  0.6801763824677113  0.6639067116631704  0.7208337392579960
  0.3051763824677113  0.7889067116631704  0.7208337392579960
  0.9301763824677116  0.9139067116631706  0.7208337392579960
  0.4301763824677107  0.4139067116631703  0.7208337392579960
  0.0551763824677114  0.5389067116631705  0.7208337392579960
  0.8051763824677111  0.2889067116631706  0.7208337392579960
  0.5551763824677113  0.0389067116631703  0.7208337392579960
  0.2205784452110982  0.5253534224178521  0.7128066694116942
  0.5955784452110982  0.4003534224178523  0.7128066694116942
  0.0955784452110981  0.9003534224178523  0.7128066694116942
  0.4358280198255328  0.9610592449329884  0.7087713247012510
  0.0608280198255331  0.0860592449329885  0.7087713247012506
  0.5608280198255330  0.5860592449329884  0.7087713247012510
  0.1858280198255330  0.7110592449329884  0.7087713247012510
  0.9358280198255328  0.4610592449329886  0.7087713247012510
  0.6021187801842739  0.3036403351361324  0.6766235720170781
  0.2271187801842734  0.4286403351361324  0.6766235720170783
  0.7271187801842732  0.9286403351361323  0.6766235720170783
  0.3521187801842737  0.0536403351361324  0.6766235720170783
  0.9771187801842739  0.1786403351361324  0.6766235720170781
  0.4771187801842734  0.6786403351361321  0.6766235720170783
  0.1021187801842733  0.8036403351361322  0.6766235720170783
  0.8521187801842736  0.5536403351361322  0.6766235720170786
  0.7205784452110979  0.0253534224178520  0.7128066694116945
  0.3455784452110981  0.1503534224178523  0.7128066694116942
  0.8455784452110982  0.6503534224178522  0.7128066694116942
  0.4705784452110982  0.7753534224178521  0.7128066694116946
  0.5987424985981923  0.4690557186954459  0.6021951646678764
  0.2555344504236471  0.2798422159339543  0.4814555983104505
