810
Lattice="17.43775251573436 0.0 1.1e-15 3.4875505031468674 19.181527767307795 1.2e-15 0.0 0.0 46.907058570379675" Properties=species:S:1:pos:R:3:move_mask:L:1 pbc="T T T"
Sr      13.95022428      15.69396844      11.96943225  F
Sr      12.20644903      19.18151895      11.96943225  F
Sr      12.20644903      10.46264269      11.96943225  F
Sr      10.46267377      13.95019319      11.96943225  F
Sr       8.71889852      17.43774370      11.96943225  F
Sr      10.46267377       5.23131693      11.96943225  F
Sr       8.71889852       8.71886744      11.96943225  F
Sr       6.97512327      12.20641794      11.96943225  F
Sr       5.23134802      15.69396844      11.96943225  F
Sr       3.48757277      19.18151895      11.96943225  F
Sr       6.97512327       3.48754168      11.96943225  F
Sr       5.23134802       6.97509219      11.96943225  F
Sr       3.48757277      10.46264269      11.96943225  F
Sr      19.18155003      13.95019319      11.96943225  F
Sr      17.43777478      17.43774370      11.96943225  F
Sr       3.48757277       1.74376643      11.96943225  F
Sr       1.74379752       5.23131693      11.96943225  F
Sr      17.43777478       8.71886744      11.96943225  F
Sr      15.69399953      12.20641794      11.96943225  F
Sr      15.69399953       3.48754168      11.96943225  F
Sr      13.95022428       6.97509219      11.96943225  F
Sr      12.20644903       1.74376643      11.96943225  F
Sr      13.95022428      15.69396844      15.86863225  T
Sr      12.20644903      19.18151895      15.86863225  T
Sr      12.20644903      10.46264269      15.86863225  T
Sr      10.46267377      13.95019319      15.86863225  T
Sr       8.71889852      17.43774370      15.86863225  T
Sr      10.46267377       5.23131693      15.86863225  T
Sr       8.71889852       8.71886744      15.86863225  T
Sr       6.97512327      12.20641794      15.86863225  T
Sr       5.23134802      15.69396844      15.86863225  T
Sr       3.48757277      19.18151895      15.86863225  T
Sr       6.97512327       3.48754168      15.86863225  T
Sr       5.23134802       6.97509219      15.86863225  T
Sr       3.48757277      10.46264269      15.86863225  T
Sr      19.18155003      13.95019319      15.86863225  T
Sr      17.43777478      17.43774370      15.86863225  T
Sr       3.48757277       1.74376643      15.86863225  T
Sr       1.74379752       5.23131693      15.86863225  T
Sr      17.43777478       8.71886744      15.86863225  T
Sr      15.69399953      12.20641794      15.86863225  T
Sr      15.69399953       3.48754168      15.86863225  T
Sr      13.95022428       6.97509219      15.86863225  T
Sr      12.20644903       1.74376643      15.86863225  T
Sr      13.95022428      15.69396844      19.76783225  T
Sr      12.20644903      19.18151895      19.76783225  T
Sr      12.20644903      10.46264269      19.76783225  T
Sr      10.46267377      13.95019319      19.76783225  T
Sr       8.71889852      17.43774370      19.76783225  T
Sr      10.46267377       5.23131693      19.76783225  T
Sr       8.71889852       8.71886744      19.76783225  T
Sr       6.97512327      12.20641794      19.76783225  T
Sr       5.23134802      15.69396844      19.76783225  T
Sr       3.48757277      19.18151895      19.76783225  T
Sr       6.97512327       3.48754168      19.76783225  T
Sr       5.23134802       6.97509219      19.76783225  T
Sr       3.48757277      10.46264269      19.76783225  T
Sr      19.18155003      13.95019319      19.76783225  T
Sr      17.43777478      17.43774370      19.76783225  T
Sr       3.48757277       1.74376643      19.76783225  T
Sr       1.74379752       5.23131693      19.76783225  T
Sr      17.43777478       8.71886744      19.76783225  T
Sr      15.69399953      12.20641794      19.76783225  T
Sr      15.69399953       3.48754168      19.76783225  T
Sr      13.95022428       6.97509219      19.76783225  T
Sr      12.20644903       1.74376643      19.76783225  T
Hf      12.08355711       7.83574316      35.61881154  T
Hf      17.31488287      12.63112510      35.61881154  T
Hf       5.98034373      10.23343413      35.61881154  T
Hf      12.95544474       0.64267025      35.61881154  T
Hf       5.10845611      17.42650704      35.61881154  T
Hf      11.21166949      15.02881607      35.61881154  T
Hf      18.18677049       5.43805219      35.61881154  T
Hf       6.85223136       3.04036122      35.61881154  T
Hf      15.02281238       5.99520008      35.78463008  T
Hf       2.81638562      10.79058202      35.78463008  T
Hf       8.91959900       8.39289105      35.78463008  T
Hf      19.38225051      17.98365493      35.78463008  T
Hf       8.04771137      15.58596396      35.78463008  T
Hf      14.15092475      13.18827299      35.78463008  T
Hf       3.68827324       3.59750911      35.78463008  T
Hf       9.79148663       1.19981814      35.78463008  T
Hf       9.47195053       5.09892123      36.03513202  T
Hf      14.70327628       9.89430317      36.03513202  T
Hf       3.36873715       7.49661220      36.03513202  T
Hf      13.83138866      17.08737609      36.03513202  T
Hf      19.93460204      14.68968512      36.03513202  T
Hf       8.60006290      12.29199415      36.03513202  T
Hf      15.57516391       2.70123026      36.03513202  T
Hf       4.24062477       0.30353929      36.03513202  T
Hf      17.63443548       8.73201716      35.36831044  T
Hf       5.42800872      13.52739910      35.36831044  T
Hf      11.53122210      11.12970813      35.36831044  T
Hf       1.06857059       1.53894425      35.36831044  T
Hf      10.65933447      18.32278104      35.36831044  T
Hf      16.76254785      15.92509007      35.36831044  T
Hf       6.29989634       6.33432619      35.36831044  T
Hf      12.40310972       3.93663522      35.36831044  T
Hf      15.86782056       8.87095534      32.50412888  T
Hf       3.66139380      13.66633729      32.50412888  T
Hf       9.76460718      11.26864631      32.50412888  T
Hf      16.73970819       1.67788243      32.50412888  T
Hf       8.89271955      18.46171923      32.50412888  T
Hf      14.99593294      16.06402826      32.50412888  T
Hf       4.53328143       6.47326437      32.50412888  T
Hf      10.63649481       4.07557340      32.50412888  T
Hf       1.36932331       7.03041226      32.66994742  T
Hf       6.60064907      11.82579420      32.66994742  T
Hf      12.70386245       9.42810323      32.66994742  T
Hf       5.72876144      19.01886712      32.66994742  T
Hf      11.83197482      16.62117615      32.66994742  T
Hf      17.93518820      14.22348517      32.66994742  T
Hf       7.47253669       4.63272129      32.66994742  T
Hf      13.57575007       2.23503032      32.66994742  T
Hf      13.25621398       6.13413342      32.92044936  T
Hf      18.48753973      10.92951536      32.92044936  T
Hf       7.15300060       8.53182439      32.92044936  T
Hf      17.61565211      18.12258827      32.92044936  T
Hf       6.28111297      15.72489730      32.92044936  T
Hf      12.38432635      13.32720633      32.92044936  T
Hf       1.92167484       3.73644244      32.92044936  T
Hf       8.02488822       1.33875147      32.92044936  T
Hf       3.98094641       9.76722934      32.25362777  T
Hf       9.21227216      14.56261128      32.25362777  T
Hf      15.31548554      12.16492031      32.25362777  T
Hf       4.85283404       2.57415643      32.25362777  T
Hf      10.95604742       0.17646546      32.25362777  T
Hf       3.10905878      16.96030226      32.25362777  T
Hf      10.08415979       7.36953837      32.25362777  T
Hf      16.18737317       4.97184740      32.25362777  T
Hf       2.21433149       9.90616753      29.38944622  T
Hf       7.44565725      14.70154947      29.38944622  T
Hf      13.54887063      12.30385850      29.38944622  T
Hf       3.08621912       2.71309461      29.38944622  T
Hf       9.18943250       0.31540364      29.38944622  T
Hf      18.78019638      17.09924044      29.38944622  T
Hf       8.31754487       7.50847656      29.38944622  T
Hf      14.42075825       5.11078558      29.38944622  T
Hf       5.15358676       8.06562444      29.55526475  T
Hf      10.38491251      12.86100639      29.55526475  T
Hf      16.48812590      10.46331542      29.55526475  T
Hf       6.02547439       0.87255153      29.55526475  T
Hf      15.61623827      17.65638833      29.55526475  T
Hf       4.28169913      15.25869736      29.55526475  T
Hf      11.25680014       5.66793347      29.55526475  T
Hf      17.36001352       3.27024250      29.55526475  T
Hf      17.04047742       7.16934560      29.80576670  T
Hf       4.83405066      11.96472754      29.80576670  T
Hf      10.93726404       9.56703657      29.80576670  T
Hf       3.96216304      19.15780045      29.80576670  T
Hf      10.06537642      16.76010948      29.80576670  T
Hf      16.16858980      14.36241851      29.80576670  T
Hf       5.70593829       4.77165463      29.80576670  T
Hf      11.80915167       2.37396366      29.80576670  T
Hf       7.76520986      10.80244153      29.13894511  T
Hf      12.99653561      15.59782347      29.13894511  T
Hf      19.09974899      13.20013250      29.13894511  T
Hf       8.63709748       3.60936861      29.13894511  T
Hf      14.74031086       1.21167764      29.13894511  T
Hf       6.89332223      17.99551444      29.13894511  T
Hf      13.86842324       8.40475055      29.13894511  T
Hf       2.53388410       6.00705958      29.13894511  T
Hf       5.99859494      10.94137971      26.27476355  T
Hf      11.22992070      15.73676165      26.27476355  T
Hf      17.33313408      13.33907068      26.27476355  T
Hf       6.87048257       3.74830680      26.27476355  T
Hf      12.97369595       1.35061583      26.27476355  T
Hf       5.12670731      18.13445262      26.27476355  T
Hf      12.10180832       8.54368874      26.27476355  T
Hf      18.20502170       6.14599777      26.27476355  T
Hf       8.93785021       9.10083663      26.44058209  T
Hf      14.16917596      13.89621857      26.44058209  T
Hf       2.83463683      11.49852760      26.44058209  T
Hf       9.80973783       1.90776372      26.44058209  T
Hf      19.40050172      18.69160051      26.44058209  T
Hf       8.06596258      16.29390954      26.44058209  T
Hf      15.04106359       6.70314566      26.44058209  T
Hf       3.70652445       4.30545469      26.44058209  T
Hf       3.38698836       8.20455778      26.69108403  T
Hf       8.61831411      12.99993972      26.69108403  T
Hf      14.72152749      10.60224875      26.69108403  T
Hf       4.25887598       1.01148487      26.69108403  T
Hf      13.84963987      17.79532167      26.69108403  T
Hf      19.95285325      15.39763069      26.69108403  T
Hf       9.49020174       5.80686681      26.69108403  T
Hf      15.59341512       3.40917584      26.69108403  T
Hf      11.54947330      11.83765371      26.02426245  T
Hf      16.78079906      16.63303565      26.02426245  T
Hf       5.44625992      14.23534468      26.02426245  T
Hf      12.42136093       4.64458080      26.02426245  T
Hf       1.08682180       2.24688983      26.02426245  T
Hf      10.67758568      19.03072662      26.02426245  T
Hf      17.65268669       9.43996274      26.02426245  T
Hf       6.31814755       7.04227177      26.02426245  T
Hf       9.78285839      11.97659189      23.16008089  T
Hf      15.01418414      16.77197383      23.16008089  T
Hf       3.67964501      14.37428286      23.16008089  T
Hf      10.65474601       4.78351898      23.16008089  T
Hf      16.75795939       2.38582801      23.16008089  T
Hf       8.91097076      19.16966481      23.16008089  T
Hf      15.88607177       9.57890092      23.16008089  T
Hf       4.55153263       7.18120995      23.16008089  T
Hf      12.72211366      10.13604881      23.32589943  T
Hf      17.95343941      14.93143075      23.32589943  T
Hf       6.61890028      12.53373978      23.32589943  T
Hf      13.59400128       2.94297590      23.32589943  T
Hf       2.25946215       0.54528493      23.32589943  T
Hf      11.85022603      17.32912172      23.32589943  T
Hf      18.82532704       7.73835784      23.32589943  T
Hf       7.49078790       5.34066687      23.32589943  T
Hf       7.17125180       9.23976996      23.57640137  T
Hf      12.40257756      14.03515191      23.57640137  T
Hf      18.50579094      11.63746094      23.57640137  T
Hf       8.04313943       2.04669705      23.57640137  T
Hf      17.63390331      18.83053385      23.57640137  T
Hf       6.29936418      16.43284288      23.57640137  T
Hf      13.27446518       6.84207899      23.57640137  T
Hf       1.93992605       4.44438802      23.57640137  T
Hf      15.33373675      12.87286589      22.90957979  T
Hf      20.56506251      17.66824783      22.90957979  T
Hf       9.23052337      15.27055686      22.90957979  T
Hf      16.20562438       5.67979298      22.90957979  T
Hf       4.87108524       3.28210201      22.90957979  T
Hf      10.97429862       0.88441104      22.90957979  T
Hf       3.99919762      10.47517492      22.90957979  T
Hf      10.10241100       8.07748395      22.90957979  T
Ti      16.56590190      14.82207749      10.01981452  F
Ti      14.82212665      18.30962799      10.01981452  F
Ti      14.82212665       9.59075174      10.01981452  F
Ti      13.07835140      13.07830224      10.01981452  F
Ti      11.33457615      16.56585274      10.01981452  F
Ti      13.07835140       4.35942598      10.01981452  F
Ti      11.33457615       7.84697648      10.01981452  F
Ti       9.59080090      11.33452699      10.01981452  F
Ti       7.84702565      14.82207749      10.01981452  F
Ti       6.10325039      18.30962799      10.01981452  F
Ti       9.59080090       2.61565073      10.01981452  F
Ti       7.84702565       6.10320123      10.01981452  F
Ti       6.10325039       9.59075174      10.01981452  F
Ti       4.35947514      13.07830224      10.01981452  F
Ti      20.05345241      16.56585274      10.01981452  F
Ti       6.10325039       0.87187548      10.01981452  F
Ti       4.35947514       4.35942598      10.01981452  F
Ti       2.61569989       7.84697648      10.01981452  F
Ti      18.30967716      11.33452699      10.01981452  F
Ti       0.87192464       2.61565073      10.01981452  F
Ti      16.56590190       6.10320123      10.01981452  F
Ti      14.82212665       0.87187548      10.01981452  F
Ti      16.56590190      14.82207749      13.91901452  F
Ti      14.82212665      18.30962799      13.91901452  F
Ti      14.82212665       9.59075174      13.91901452  F
Ti      13.07835140      13.07830224      13.91901452  F
Ti      11.33457615      16.56585274      13.91901452  F
Ti      13.07835140       4.35942598      13.91901452  F
Ti      11.33457615       7.84697648      13.91901452  F
Ti       9.59080090      11.33452699      13.91901452  F
Ti       7.84702565      14.82207749      13.91901452  F
Ti       6.10325039      18.30962799      13.91901452  F
Ti       9.59080090       2.61565073      13.91901452  F
Ti       7.84702565       6.10320123      13.91901452  F
Ti       6.10325039       9.59075174      13.91901452  F
Ti       4.35947514      13.07830224      13.91901452  F
Ti      20.05345241      16.56585274      13.91901452  F
Ti       6.10325039       0.87187548      13.91901452  F
Ti       4.35947514       4.35942598      13.91901452  F
Ti       2.61569989       7.84697648      13.91901452  F
Ti      18.30967716      11.33452699      13.91901452  F
Ti       0.87192464       2.61565073      13.91901452  F
Ti      16.56590190       6.10320123      13.91901452  F
Ti      14.82212665       0.87187548      13.91901452  F
Ti      16.56590190      14.82207749      17.81821452  T
Ti      14.82212665      18.30962799      17.81821452  T
Ti      14.82212665       9.59075174      17.81821452  T
Ti      13.07835140      13.07830224      17.81821452  T
Ti      11.33457615      16.56585274      17.81821452  T
Ti      13.07835140       4.35942598      17.81821452  T
Ti      11.33457615       7.84697648      17.81821452  T
Ti       9.59080090      11.33452699      17.81821452  T
Ti       7.84702565      14.82207749      17.81821452  T
Ti       6.10325039      18.30962799      17.81821452  T
Ti       9.59080090       2.61565073      17.81821452  T
Ti       7.84702565       6.10320123      17.81821452  T
Ti       6.10325039       9.59075174      17.81821452  T
Ti       4.35947514      13.07830224      17.81821452  T
Ti      20.05345241      16.56585274      17.81821452  T
Ti       6.10325039       0.87187548      17.81821452  T
Ti       4.35947514       4.35942598      17.81821452  T
Ti       2.61569989       7.84697648      17.81821452  T
Ti      18.30967716      11.33452699      17.81821452  T
Ti       0.87192464       2.61565073      17.81821452  T
Ti      16.56590190       6.10320123      17.81821452  T
Ti      14.82212665       0.87187548      17.81821452  T
O       15.69400397      16.56585742      10.01982526  F
O       10.46267821       0.87188016      10.01982526  F
O       13.95022871      11.33453167      10.01982526  F
O       12.20645346      14.82208217      10.01982526  F
O       10.46267821      18.30963267      10.01982526  F
O       12.20645346       6.10320591      10.01982526  F
O       10.46267821       9.59075642      10.01982526  F
O        8.71890296      13.07830692      10.01982526  F
O        6.97512771      16.56585742      10.01982526  F
O        1.74380195       0.87188016      10.01982526  F
O        8.71890296       4.35943066      10.01982526  F
O        6.97512771       7.84698116      10.01982526  F
O        5.23135246      11.33453167      10.01982526  F
O        3.48757720      14.82208217      10.01982526  F
O       19.18155447      18.30963267      10.01982526  F
O        5.23135246       2.61565541      10.01982526  F
O        3.48757720       6.10320591      10.01982526  F
O        1.74380195       9.59075642      10.01982526  F
O       17.43777922      13.07830692      10.01982526  F
O       17.43777922       4.35943066      10.01982526  F
O       15.69400397       7.84698116      10.01982526  F
O       13.95022871       2.61565541      10.01982526  F
O       14.82211460      13.95018431      10.01982991  F
O       13.07833935      17.43773482      10.01982991  F
O       13.07833935       8.71885856      10.01982991  F
O       11.33456410      12.20640906      10.01982991  F
O        9.59078884      15.69395957      10.01982991  F
O       11.33456410       3.48753280      10.01982991  F
O        9.59078884       6.97508331      10.01982991  F
O        7.84701359      10.46263381      10.01982991  F
O        6.10323834      13.95018431      10.01982991  F
O        4.35946309      17.43773482      10.01982991  F
O        7.84701359       1.74375755      10.01982991  F
O        6.10323834       5.23130806      10.01982991  F
O        4.35946309       8.71885856      10.01982991  F
O        2.61568784      12.20640906      10.01982991  F
O       18.30966510      15.69395957      10.01982991  F
O        7.84701359      19.18151007      10.01982991  F
O        2.61568784       3.48753280      10.01982991  F
O       18.30966510       6.97508331      10.01982991  F
O       16.56588985      10.46263381      10.01982991  F
O       16.56588985       1.74375755      10.01982991  F
O       14.82211460       5.23130806      10.01982991  F
O       16.56588985      19.18151007      10.01982991  F
O       16.56589793      14.82207515      11.96943853  F
O       14.82212267      18.30962565      11.96943853  F
O       14.82212267       9.59074939      11.96943853  F
O       13.07834742      13.07829990      11.96943853  F
O       11.33457217      16.56585040      11.96943853  F
O       13.07834742       4.35942364      11.96943853  F
O       11.33457217       7.84697414      11.96943853  F
O        9.59079692      11.33452464      11.96943853  F
O        7.84702167      14.82207515      11.96943853  F
O        6.10324642      18.30962565      11.96943853  F
O        9.59079692       2.61564839      11.96943853  F
O        7.84702167       6.10319889      11.96943853  F
O        6.10324642       9.59074939      11.96943853  F
O        4.35947117      13.07829990      11.96943853  F
O       20.05344843      16.56585040      11.96943853  F
O        6.10324642       0.87187313      11.96943853  F
O        4.35947117       4.35942364      11.96943853  F
O        2.61569591       7.84697414      11.96943853  F
O       18.30967318      11.33452464      11.96943853  F
O        0.87192066       2.61564839      11.96943853  F
O       16.56589793       6.10319889      11.96943853  F
O       14.82212267       0.87187313      11.96943853  F
O       15.69400397      16.56585742      13.91902526  F
O       10.46267821       0.87188016      13.91902526  F
O       13.95022871      11.33453167      13.91902526  F
O       12.20645346      14.82208217      13.91902526  F
O       10.46267821      18.30963267      13.91902526  F
O       12.20645346       6.10320591      13.91902526  F
O       10.46267821       9.59075642      13.91902526  F
O        8.71890296      13.07830692      13.91902526  F
O        6.97512771      16.56585742      13.91902526  F
O        1.74380195       0.87188016      13.91902526  F
O        8.71890296       4.35943066      13.91902526  F
O        6.97512771       7.84698116      13.91902526  F
O        5.23135246      11.33453167      13.91902526  F
O        3.48757720      14.82208217      13.91902526  F
O       19.18155447      18.30963267      13.91902526  F
O        5.23135246       2.61565541      13.91902526  F
O        3.48757720       6.10320591      13.91902526  F
O        1.74380195       9.59075642      13.91902526  F
O       17.43777922      13.07830692      13.91902526  F
O       17.43777922       4.35943066      13.91902526  F
O       15.69400397       7.84698116      13.91902526  F
O       13.95022871       2.61565541      13.91902526  F
O       14.82211460      13.95018431      13.91902991  F
O       13.07833935      17.43773482      13.91902991  F
O       13.07833935       8.71885856      13.91902991  F
O       11.33456410      12.20640906      13.91902991  F
O        9.59078884      15.69395957      13.91902991  F
O       11.33456410       3.48753280      13.91902991  F
O        9.59078884       6.97508331      13.91902991  F
O        7.84701359      10.46263381      13.91902991  F
O        6.10323834      13.95018431      13.91902991  F
O        4.35946309      17.43773482      13.91902991  F
O        7.84701359       1.74375755      13.91902991  F
O        6.10323834       5.23130806      13.91902991  F
O        4.35946309       8.71885856      13.91902991  F
O        2.61568784      12.20640906      13.91902991  F
O       18.30966510      15.69395957      13.91902991  F
O        7.84701359      19.18151007      13.91902991  F
O        2.61568784       3.48753280      13.91902991  F
O       18.30966510       6.97508331      13.91902991  F
O       16.56588985      10.46263381      13.91902991  F
O       16.56588985       1.74375755      13.91902991  F
O       14.82211460       5.23130806      13.91902991  F
O       16.56588985      19.18151007      13.91902991  F
O       16.56589793      14.82207515      15.86863853  T
O       14.82212267      18.30962565      15.86863853  T
O       14.82212267       9.59074939      15.86863853  T
O       13.07834742      13.07829990      15.86863853  T
O       11.33457217      16.56585040      15.86863853  T
O       13.07834742       4.35942364      15.86863853  T
O       11.33457217       7.84697414      15.86863853  T
O        9.59079692      11.33452464      15.86863853  T
O        7.84702167      14.82207515      15.86863853  T
O        6.10324642      18.30962565      15.86863853  T
O        9.59079692       2.61564839      15.86863853  T
O        7.84702167       6.10319889      15.86863853  T
O        6.10324642       9.59074939      15.86863853  T
O        4.35947117      13.07829990      15.86863853  T
O       20.05344843      16.56585040      15.86863853  T
O        6.10324642       0.87187313      15.86863853  T
O        4.35947117       4.35942364      15.86863853  T
O        2.61569591       7.84697414      15.86863853  T
O       18.30967318      11.33452464      15.86863853  T
O        0.87192066       2.61564839      15.86863853  T
O       16.56589793       6.10319889      15.86863853  T
O       14.82212267       0.87187313      15.86863853  T
O       15.69400397      16.56585742      17.81822526  T
O       10.46267821       0.87188016      17.81822526  T
O       13.95022871      11.33453167      17.81822526  T
O       12.20645346      14.82208217      17.81822526  T
O       10.46267821      18.30963267      17.81822526  T
O       12.20645346       6.10320591      17.81822526  T
O       10.46267821       9.59075642      17.81822526  T
O        8.71890296      13.07830692      17.81822526  T
O        6.97512771      16.56585742      17.81822526  T
O        1.74380195       0.87188016      17.81822526  T
O        8.71890296       4.35943066      17.81822526  T
O        6.97512771       7.84698116      17.81822526  T
O        5.23135246      11.33453167      17.81822526  T
O        3.48757720      14.82208217      17.81822526  T
O       19.18155447      18.30963267      17.81822526  T
O        5.23135246       2.61565541      17.81822526  T
O        3.48757720       6.10320591      17.81822526  T
O        1.74380195       9.59075642      17.81822526  T
O       17.43777922      13.07830692      17.81822526  T
O       17.43777922       4.35943066      17.81822526  T
O       15.69400397       7.84698116      17.81822526  T
O       13.95022871       2.61565541      17.81822526  T
O       14.82211460      13.95018431      17.81822991  T
O       13.07833935      17.43773482      17.81822991  T
O       13.07833935       8.71885856      17.81822991  T
O       11.33456410      12.20640906      17.81822991  T
O        9.59078884      15.69395957      17.81822991  T
O       11.33456410       3.48753280      17.81822991  T
O        9.59078884       6.97508331      17.81822991  T
O        7.84701359      10.46263381      17.81822991  T
O        6.10323834      13.95018431      17.81822991  T
O        4.35946309      17.43773482      17.81822991  T
O        7.84701359       1.74375755      17.81822991  T
O        6.10323834       5.23130806      17.81822991  T
O        4.35946309       8.71885856      17.81822991  T
O        2.61568784      12.20640906      17.81822991  T
O       18.30966510      15.69395957      17.81822991  T
O        7.84701359      19.18151007      17.81822991  T
O        2.61568784       3.48753280      17.81822991  T
O       18.30966510       6.97508331      17.81822991  T
O       16.56588985      10.46263381      17.81822991  T
O       16.56588985       1.74375755      17.81822991  T
O       14.82211460       5.23130806      17.81822991  T
O       16.56588985      19.18151007      17.81822991  T
O       16.56589793      14.82207515      19.76783853  T
O       14.82212267      18.30962565      19.76783853  T
O       14.82212267       9.59074939      19.76783853  T
O       13.07834742      13.07829990      19.76783853  T
O       11.33457217      16.56585040      19.76783853  T
O       13.07834742       4.35942364      19.76783853  T
O       11.33457217       7.84697414      19.76783853  T
O        9.59079692      11.33452464      19.76783853  T
O        7.84702167      14.82207515      19.76783853  T
O        6.10324642      18.30962565      19.76783853  T
O        9.59079692       2.61564839      19.76783853  T
O        7.84702167       6.10319889      19.76783853  T
O        6.10324642       9.59074939      19.76783853  T
O        4.35947117      13.07829990      19.76783853  T
O       20.05344843      16.56585040      19.76783853  T
O        6.10324642       0.87187313      19.76783853  T
O        4.35947117       4.35942364      19.76783853  T
O        2.61569591       7.84697414      19.76783853  T
O       18.30967318      11.33452464      19.76783853  T
O        0.87192066       2.61564839      19.76783853  T
O       16.56589793       6.10319889      19.76783853  T
O       14.82212267       0.87187313      19.76783853  T
O       16.74689916       6.94539942      35.48585210  T
O        4.54047239      11.74078136      35.48585210  T
O       10.64368578       9.34309039      35.48585210  T
O        3.66858477      18.93385427      35.48585210  T
O        9.77179815      16.53616330      35.48585210  T
O       15.87501153      14.13847233      35.48585210  T
O        5.41236002       4.54770845      35.48585210  T
O       11.51557340       2.15001748      35.48585210  T
O       10.35946961       6.88554614      35.91760337  T
O       15.59079536      11.68092808      35.91760337  T
O        4.25625623       9.28323711      35.91760337  T
O       14.71890774      18.87400099      35.91760337  T
O        3.38436860      16.47631002      35.91760337  T
O        9.48758198      14.07861905      35.91760337  T
O       16.46268299       4.48785517      35.91760337  T
O        5.12814385       2.09016419      35.91760337  T
O       11.26377979       4.50645993      36.92687309  T
O       16.49510554       9.30184187      36.92687309  T
O        5.16056641       6.90415090      36.92687309  T
O       15.62321792      16.49491478      36.92687309  T
O        4.28867878      14.09722381      36.92687309  T
O       10.39189216      11.69953284      36.92687309  T
O       17.36699317       2.10876896      36.92687309  T
O        9.52000454      18.89260575      36.92687309  T
O       15.84259126       9.32447190      34.47656919  T
O        3.63616450      14.11985384      34.47656919  T
O        9.73937788      11.72216287      34.47656919  T
O       16.71447888       2.13139898      34.47656919  T
O        8.86749025      18.91523578      34.47656919  T
O       14.97070363      16.51754481      34.47656919  T
O        4.50805212       6.92678093      34.47656919  T
O       10.61126550       4.52908996      34.47656919  T
O       14.10075224       4.24648713      36.55034685  T
O        1.89432548       9.04186908      36.55034685  T
O        7.99753886       6.64417811      36.55034685  T
O       18.46019037      16.23494199      36.55034685  T
O        7.12565124      13.83725102      36.55034685  T
O       13.22886462      11.43956005      36.55034685  T
O        2.76621311       1.84879616      36.55034685  T
O       12.35697699      18.63263296      36.55034685  T
O       13.00562158       9.58445528      34.85310419  T
O       18.23694734      14.37983722      34.85310419  T
O        6.90240820      11.98214625      34.85310419  T
O       13.87750921       2.39138237      34.85310419  T
O        6.03052058      19.17521916      34.85310419  T
O       12.13373396      16.77752819      34.85310419  T
O        1.67108245       7.18676431      34.85310419  T
O        7.77429583       4.78907334      34.85310419  T
O       14.14244136       7.80860853      36.36106070  T
O       19.37376712      12.60399047      36.36106070  T
O        8.03922798      10.20629950      36.36106070  T
O       15.01432899       0.61553561      36.36106070  T
O        7.16734035      17.39937241      36.36106070  T
O       13.27055374      15.00168144      36.36106070  T
O        2.80790223       5.41091755      36.36106070  T
O        8.91111561       3.01322658      36.36106070  T
O       12.96393485       6.02233444      35.04239660  T
O       18.19526060      10.81771639      35.04239660  T
O        6.86072147       8.42002542      35.04239660  T
O       17.32337297      18.01078930      35.04239660  T
O        5.98883384      15.61309833      35.04239660  T
O       12.09204722      13.21540736      35.04239660  T
O        1.62939571       3.62464347      35.04239660  T
O        7.73260909       1.22695250      35.04239660  T
O        3.09341009       7.98061160      32.37116943  T
O        8.32473584      12.77599354      32.37116943  T
O       14.42794922      10.37830257      32.37116943  T
O        3.96529771       0.78753869      32.37116943  T
O       13.55606160      17.57137548      32.37116943  T
O       19.65927498      15.17368451      32.37116943  T
O        9.19662347       5.58292063      32.37116943  T
O       15.29983685       3.18522966      32.37116943  T
O       14.14373306       7.92075832      32.80292070  T
O       19.37505881      12.71614026      32.80292070  T
O        8.04051968      10.31844929      32.80292070  T
O       15.01562068       0.72768541      32.80292070  T
O        7.16863205      17.51152220      32.80292070  T
O       13.27184543      15.11383123      32.80292070  T
O        2.80919392       5.52306735      32.80292070  T
O        8.91240730       3.12537638      32.80292070  T
O       15.04804324       5.54167211      33.81219043  T
O        2.84161648      10.33705405      33.81219043  T
O        8.94482986       7.93936308      33.81219043  T
O       19.40748137      17.53012697      33.81219043  T
O        8.07294223      15.13243600      33.81219043  T
O       14.17615561      12.73474502      33.81219043  T
O        3.71350410       3.14398114      33.81219043  T
O        9.81671748       0.74629017      33.81219043  T
O        2.18910219      10.35968408      31.36188652  T
O        7.42042795      15.15506602      31.36188652  T
O       13.52364133      12.75737505      31.36188652  T
O        3.06098982       3.16661117      31.36188652  T
O        9.16420320       0.76892020      31.36188652  T
O       18.75496708      17.55275699      31.36188652  T
O        8.29231557       7.96199311      31.36188652  T
O       14.39552895       5.56430214      31.36188652  T
O       17.88501569       5.28169932      33.43566419  T
O        5.67858893      10.07708126      33.43566419  T
O       11.78180231       7.67939029      33.43566419  T
O        4.80670130      17.27015417      33.43566419  T
O       10.90991469      14.87246320      33.43566419  T
O       17.01312807      12.47477223      33.43566419  T
O        6.55047656       2.88400835      33.43566419  T
O       12.65368994       0.48631738      33.43566419  T
O       16.78988503      10.61966746      31.73842152  T
O        4.58345827      15.41504940      31.73842152  T
O       10.68667165      13.01735843      31.73842152  T
O       17.66177266       3.42659455      31.73842152  T
O        6.32723352       1.02890358      31.73842152  T
O       15.91799741      17.81274037      31.73842152  T
O        5.45534590       8.22197649      31.73842152  T
O       11.55855928       5.82428552      31.73842152  T
O       17.92670481       8.84382071      33.24637804  T
O        5.72027805      13.63920265      33.24637804  T
O       11.82349143      11.24151168      33.24637804  T
O        1.36083992       1.65074780      33.24637804  T
O       10.95160380      18.43458459      33.24637804  T
O       17.05481718      16.03689362      33.24637804  T
O        6.59216567       6.44612974      33.24637804  T
O       12.69537905       4.04843877      33.24637804  T
O       16.74819829       7.05754663      31.92771394  T
O        4.54177153      11.85292857      31.92771394  T
O       10.64498491       9.45523760      31.92771394  T
O        3.66988391      19.04600148      31.92771394  T
O        9.77309729      16.64831051      31.92771394  T
O       15.87631067      14.25061954      31.92771394  T
O        5.41365916       4.65985566      31.92771394  T
O       11.51687254       2.26216469      31.92771394  T
O        6.87767354       9.01582378      29.25648677  T
O       12.10899929      13.81120572      29.25648677  T
O       18.21221267      11.41351475      29.25648677  T
O        7.74956116       1.82275087      29.25648677  T
O       17.34032504      18.60658767      29.25648677  T
O        6.00578591      16.20889670      29.25648677  T
O       12.98088692       6.61813281      29.25648677  T
O        1.64634778       4.22044184      29.25648677  T
O       17.92799650       8.95597050      29.68823804  T
O        5.72156974      13.75135244      29.68823804  T
O       11.82478312      11.35366147      29.68823804  T
O        1.36213161       1.76289759      29.68823804  T
O       10.95289550      18.54673439      29.68823804  T
O       17.05610888      16.14904342      29.68823804  T
O        6.59345737       6.55827953      29.68823804  T
O       12.69667075       4.16058856      29.68823804  T
O        1.39455417       6.57688430      30.69750776  T
O        6.62587992      11.37226624      30.69750776  T
O       12.72909330       8.97457527      30.69750776  T
O        5.75399230      18.56533915      30.69750776  T
O       11.85720568      16.16764818      30.69750776  T
O       17.96041906      13.76995721      30.69750776  T
O        7.49776755       4.17919332      30.69750776  T
O       13.60098093       1.78150235      30.69750776  T
O        5.97336564      11.39489626      28.24720386  T
O       11.20469139      16.19027821      28.24720386  T
O       17.30790477      13.79258723      28.24720386  T
O        6.84525326       4.20182335      28.24720386  T
O       12.94846664       1.80413238      28.24720386  T
O        5.10147801      18.58796918      28.24720386  T
O       12.07657902       8.99720529      28.24720386  T
O       18.17979240       6.59951432      28.24720386  T
O        4.23152662       6.31691150      30.32098153  T
O        9.46285238      11.11229344      30.32098153  T
O       15.56606576       8.71460247      30.32098153  T
O        8.59096475      18.30536636      30.32098153  T
O       14.69417813      15.90767538      30.32098153  T
O        3.35963900      13.50998441      30.32098153  T
O       10.33474000       3.91922053      30.32098153  T
O       16.43795338       1.52152956      30.32098153  T
O        3.13639596      11.65487964      28.62373886  T
O        8.36772172      16.45026159      28.62373886  T
O       14.47093510      14.05257062      28.62373886  T
O        4.00828359       4.46180673      28.62373886  T
O       10.11149697       2.06411576      28.62373886  T
O       19.70226085      18.84795256      28.62373886  T
O        9.23960934       9.25718867      28.62373886  T
O       15.34282273       6.85949770      28.62373886  T
O        4.27321574       9.87903289      30.13169538  T
O        9.50454150      14.67441483      30.13169538  T
O       15.60775488      12.27672386      30.13169538  T
O        5.14510337       2.68595998      30.13169538  T
O       11.24831675       0.28826901      30.13169538  T
O        3.40132811      17.07210580      30.13169538  T
O       10.37642912       7.48134192      30.13169538  T
O       16.47964250       5.08365095      30.13169538  T
O        3.09470923       8.09275881      28.81303127  T
O        8.32603498      12.88814075      28.81303127  T
O       14.42924836      10.49044978      28.81303127  T
O        3.96659685       0.89968590      28.81303127  T
O       13.55736074      17.68352269      28.81303127  T
O       19.66057412      15.28583172      28.81303127  T
O        9.19792261       5.69506784      28.81303127  T
O       15.30113599       3.29737687      28.81303127  T
O       10.66193698      10.05103597      26.14180411  T
O       15.89326274      14.84641791      26.14180411  T
O        4.55872360      12.44872694      26.14180411  T
O       11.53382461       2.85796305      26.14180411  T
O        0.19928547       0.46027208      26.14180411  T
O        9.79004936      17.24410888      26.14180411  T
O       16.76515036       7.65334500      26.14180411  T
O        5.43061123       5.25565402      26.14180411  T
O        4.27450744       9.99118269      26.57355538  T
O        9.50583319      14.78656463      26.57355538  T
O       15.60904657      12.38887366      26.57355538  T
O        5.14639506       2.79810977      26.57355538  T
O       11.24960844       0.40041880      26.57355538  T
O        3.40261981      17.18425560      26.57355538  T
O       10.37772082       7.59349171      26.57355538  T
O       16.48093420       5.19580074      26.57355538  T
O        5.17881762       7.61209648      27.58282510  T
O       10.41014337      12.40747842      27.58282510  T
O       16.51335675      10.00978745      27.58282510  T
O        6.05070524       0.41902357      27.58282510  T
O       15.64146913      17.20286036      27.58282510  T
O        4.30692999      14.80516939      27.58282510  T
O       11.28203100       5.21440551      27.58282510  T
O       17.38524438       2.81671454      27.58282510  T
O        9.75762909      12.43010845      25.13252120  T
O       14.98895484      17.22549039      25.13252120  T
O        3.65441571      14.82779942      25.13252120  T
O       10.62951671       5.23703553      25.13252120  T
O       16.73273009       2.83934456      25.13252120  T
O        5.39819096       0.44165359      25.13252120  T
O       15.86084247      10.03241748      25.13252120  T
O        4.52630333       7.63472650      25.13252120  T
O        8.01579007       7.35212368      27.20629887  T
O       13.24711583      12.14750563      27.20629887  T
O        1.91257669       9.74981466      27.20629887  T
O        8.88767770       0.15905077      27.20629887  T
O       18.47844158      16.94288757      27.20629887  T
O        7.14390245      14.54519660      27.20629887  T
O       14.11900345       4.95443271      27.20629887  T
O        2.78446432       2.55674174      27.20629887  T
O        6.92065941      12.69009183      25.50905620  T
O       12.15198517      17.48547377      25.50905620  T
O       18.25519855      15.08778280      25.50905620  T
O        7.79254704       5.49701892      25.50905620  T
O       13.89576042       3.09932794      25.50905620  T
O        2.56122128       0.70163697      25.50905620  T
O       13.02387279      10.29240086      25.50905620  T
O        1.68933366       7.89470989      25.50905620  T
O        8.05747919      10.91424508      27.01701272  T
O       13.28880494      15.70962702      27.01701272  T
O       19.39201832      13.31193605      27.01701272  T
O        8.92936681       3.72117216      27.01701272  T
O       15.03258019       1.32348119      27.01701272  T
O        7.18559156      18.10731799      27.01701272  T
O       14.16069257       8.51655410      27.01701272  T
O        2.82615343       6.11886313      27.01701272  T
O        6.87897267       9.12797099      25.69834861  T
O       12.11029843      13.92335294      25.69834861  T
O       18.21351181      11.52566196      25.69834861  T
O        7.75086030       1.93489808      25.69834861  T
O       17.34162418      18.71873488      25.69834861  T
O        6.00708505      16.32104391      25.69834861  T
O       12.98218605       6.73028002      25.69834861  T
O        1.64764692       4.33258905      25.69834861  T
O       14.44620043      11.08624815      23.02712144  T
O       19.67752619      15.88163009      23.02712144  T
O        8.34298705      13.48393912      23.02712144  T
O       15.31808806       3.89317524      23.02712144  T
O        3.98354892       1.49548427      23.02712144  T
O       13.57431281      18.27932106      23.02712144  T
O        3.11166130       8.68855718      23.02712144  T
O        9.21487468       6.29086621      23.02712144  T
O        8.05877088      11.02639487      23.45887271  T
O       13.29009664      15.82177681      23.45887271  T
O       19.39331002      13.42408584      23.45887271  T
O        8.93065851       3.83332196      23.45887271  T
O       15.03387189       1.43563099      23.45887271  T
O        7.18688326      18.21946778      23.45887271  T
O       14.16198426       8.62870390      23.45887271  T
O        2.82744513       6.23101293      23.45887271  T
O        8.96308106       8.64730866      24.46814244  T
O       14.19440682      13.44269060      24.46814244  T
O        2.85986768      11.04499963      24.46814244  T
O        9.83496869       1.45423575      24.46814244  T
O       19.42573257      18.23807255      24.46814244  T
O        8.09119344      15.84038157      24.46814244  T
O       15.06629444       6.24961769      24.46814244  T
O        3.73175531       3.85192672      24.46814244  T
O       13.54189253      13.46532063      22.01783853  T
O       18.77321829      18.26070257      22.01783853  T
O        7.43867915      15.86301160      22.01783853  T
O       14.41378016       6.27224772      22.01783853  T
O        3.07924102       3.87455675      22.01783853  T
O        9.18245441       1.47686578      22.01783853  T
O        2.20735340      11.06762966      22.01783853  T
O        8.31056678       8.66993869      22.01783853  T
O       11.80005352       8.38733587      24.09161620  T
O       17.03137927      13.18271781      24.09161620  T
O        5.69684014      10.78502684      24.09161620  T
O       12.67194115       1.19426295      24.09161620  T
O        4.82495251      17.97809975      24.09161620  T
O       10.92816589      15.58040878      24.09161620  T
O       17.90326690       5.98964490      24.09161620  T
O        6.56872776       3.59195393      24.09161620  T
O       10.70492286      13.72530401      22.39437353  T
O       15.93624861      18.52068595      22.39437353  T
O        4.60170948      16.12299498      22.39437353  T
O       11.57681049       6.53223110      22.39437353  T
O       17.68002387       4.13454013      22.39437353  T
O        6.34548473       1.73684916      22.39437353  T
O       16.80813624      11.32761304      22.39437353  T
O        5.47359711       8.92992207      22.39437353  T
O       11.84174264      11.94945726      23.90233005  T
O       17.07306839      16.74483920      23.90233005  T
O        5.73852926      14.34714823      23.90233005  T
O       12.71363026       4.75638435      23.90233005  T
O        1.37909113       2.35869337      23.90233005  T
O       10.96985501      19.14253017      23.90233005  T
O       17.94495602       9.55176629      23.90233005  T
O        6.61041688       7.15407532      23.90233005  T
O       10.66323612      10.16318318      22.58366595  T
O       15.89456188      14.95856512      22.58366595  T
O        4.56002274      12.56087415      22.58366595  T
O       11.53512375       2.97011026      22.58366595  T
O        0.20058461       0.57241929      22.58366595  T
O        9.79134850      17.35625609      22.58366595  T
O       16.76644950       7.76549221      22.58366595  T
O        5.43191037       5.36780124      22.58366595  T
