O  Sr Ti
 1.0000000000000000
    17.4377525157343598    0.0000000000000000    0.0000000000000011
     3.4875505031468674   19.1815277673077951    0.0000000000000012
     0.0000000000000000    0.0000000000000000   46.9070585703796752
 O   Sr  Ti 
 198  66  66
Direct
  0.4318197977378851  0.0909081682036305  0.2136102798549740
  0.5227288886469761  0.6363627136581762  0.2967363619167944
  0.6590925250106127  0.4545445318399944  0.2967363619167943
  0.5681834341015219  0.9090899863854488  0.2967363619167945
  0.7045470704651579  0.7272718045672671  0.2967363619167945
  0.7727288818194080  0.1363632470546493  0.2967362627782760
  0.8181834272739533  0.4090905197819220  0.2967362627782760
  0.9545470636375896  0.2272723379637402  0.2967362627782760
  0.3863652522833399  0.8181808954763579  0.2967363619167944
  0.8636379727284990  0.6818177925091946  0.2967362627782760
  0.1363652454557715  0.3181814288728311  0.2967362627782760
  0.2727288818194079  0.1363632470546493  0.2967362627782760
  0.9090925181830443  0.9545450652364675  0.2967362627782760
  0.0454561545466806  0.7727268834182858  0.2967362627782760
  0.1818197909103171  0.5909087016001040  0.2967362627782759
  0.3181834272739534  0.4090905197819220  0.2967362627782760
  0.4545470636375897  0.2272723379637402  0.2967362627782760
  0.0000016090921351  0.4999996106910129  0.2967362627782760
  0.6136379795560670  0.1818172591127214  0.2967363619167944
  0.4772743431924306  0.3636354409309033  0.2967363619167943
  0.3409107068287942  0.5454536227490850  0.2967363619167943
  0.7500020456279384  0.4999992445109177  0.3382995868403476
  0.6590929547188473  0.9545446990563721  0.3382995868403476
  0.7954565910824839  0.7727265172381905  0.3382995868403476
  0.7500016159197034  0.9999990772945396  0.2967363619167945
  0.7954561613742488  0.2727263500218123  0.2967363619167943
  0.9318197977378850  0.0909081682036305  0.2967363619167943
  0.8409107068287944  0.5454536227490852  0.2967363619167945
  0.9772743431924306  0.3636354409309033  0.2967363619167945
  0.1136379795560670  0.1818172591127214  0.2967363619167945
  0.2500016159197034  0.9999990772945396  0.2967363619167945
  0.8863652522833397  0.8181808954763580  0.2967363619167945
  0.0227288886469759  0.6363627136581761  0.2967363619167945
  0.1590925250106123  0.4545445318399942  0.2967363619167945
  0.2954561613742488  0.2727263500218123  0.2967363619167945
  0.4318197977378851  0.0909081682036305  0.2967363619167945
  0.0681834341015216  0.9090899863854490  0.2967363619167943
  0.2045470704651579  0.7272718045672669  0.2967363619167943
  0.0909107000012262  0.0454541561455586  0.2967362627782760
  0.6136384092643021  0.6818174263290996  0.3382995868403476
  0.2272743363648626  0.8636359743273767  0.2967362627782760
  0.5000016090921353  0.4999996106910130  0.2967362627782760
  0.5681838638097565  0.4090901536018267  0.2551735047785269
  0.7045475001733931  0.2272719717836449  0.2551735047785269
  0.4772747729006656  0.8636356081472814  0.2551735047785271
  0.6136384092643021  0.6818174263290996  0.2551735047785271
  0.7500020456279384  0.4999992445109177  0.2551735047785271
  0.6590929547188473  0.9545446990563721  0.2551735047785271
  0.7954565910824839  0.7727265172381905  0.2551735047785271
  0.4318202274461204  0.5909083354200085  0.2551735047785269
  0.7500016159197034  0.9999990772945396  0.2136102798549741
  0.9318197977378850  0.0909081682036305  0.2136102798549739
  0.8409107068287944  0.5454536227490852  0.2136102798549741
  0.9772743431924306  0.3636354409309033  0.2136102798549741
  0.1136379795560670  0.1818172591127214  0.2136102798549740
  0.2500016159197034  0.9999990772945396  0.2136102798549741
  0.8863652522833397  0.8181808954763580  0.2136102798549741
  0.0227288886469759  0.6363627136581761  0.2136102798549740
  0.7954561613742488  0.2727263500218123  0.2136102798549740
  0.2954565910824839  0.7727265172381905  0.2551735047785270
  0.1590929547188474  0.9545446990563724  0.2551735047785270
  0.5227293183552113  0.1363628808745540  0.2551735047785271
  0.6363652454557714  0.3181814288728311  0.2967362627782760
  0.4090925181830443  0.9545450652364675  0.2967362627782760
  0.5454561545466805  0.7727268834182858  0.2967362627782760
  0.6818197909103172  0.5909087016001039  0.2967362627782760
  0.5909107000012259  0.0454541561455584  0.2967362627782760
  0.7272743363648624  0.8636359743273767  0.2967362627782760
  0.8409111365370294  0.0454537899654631  0.2551735047785269
  0.8863656819915747  0.3181810626927358  0.2551735047785271
  0.0227293183552112  0.1363628808745540  0.2551735047785271
  0.9318202274461200  0.5909083354200084  0.2551735047785271
  0.0681838638097566  0.4090901536018268  0.2551735047785271
  0.2045475001733931  0.2272719717836449  0.2551735047785271
  0.3409111365370294  0.0454537899654630  0.2551735047785271
  0.9772747729006657  0.8636356081472812  0.2551735047785271
  0.1136384092643021  0.6818174263290996  0.2551735047785269
  0.2500020456279385  0.4999992445109176  0.2551735047785270
  0.3863656819915748  0.3181810626927358  0.2551735047785270
  0.3636379727284990  0.6818177925091948  0.2967362627782760
  0.4772747729006656  0.8636356081472814  0.3382995868403476
  0.7045475001733931  0.2272719717836449  0.3382995868403474
  0.5681838638097565  0.4090901536018267  0.3382995868403476
  0.7954561613742488  0.2727263500218123  0.3798624439786150
  0.9318197977378850  0.0909081682036305  0.3798624439786150
  0.8409107068287944  0.5454536227490852  0.3798624439786150
  0.9772743431924306  0.3636354409309033  0.3798624439786150
  0.1136379795560670  0.1818172591127214  0.3798624439786150
  0.2500016159197034  0.9999990772945396  0.3798624439786150
  0.8863652522833397  0.8181808954763580  0.3798624439786148
  0.7500016159197034  0.9999990772945396  0.3798624439786148
  0.0227288886469759  0.6363627136581761  0.3798624439786150
  0.2954561613742488  0.2727263500218123  0.3798624439786150
  0.4318197977378851  0.0909081682036305  0.3798624439786150
  0.0681834341015216  0.9090899863854490  0.3798624439786150
  0.2045470704651579  0.7272718045672669  0.3798624439786150
  0.3409107068287942  0.5454536227490850  0.3798624439786150
  0.4772743431924306  0.3636354409309033  0.3798624439786150
  0.6136379795560670  0.1818172591127214  0.3798624439786150
  0.1590925250106123  0.4545445318399942  0.3798624439786150
  0.7954565910824839  0.7727265172381905  0.4214256689021677
  0.6590929547188473  0.9545446990563721  0.4214256689021677
  0.7500020456279384  0.4999992445109177  0.4214256689021679
  0.0227293183552112  0.1363628808745540  0.4214256689021679
  0.9318202274461200  0.5909083354200084  0.4214256689021679
  0.0681838638097566  0.4090901536018268  0.4214256689021679
  0.2045475001733931  0.2272719717836449  0.4214256689021679
  0.3409111365370294  0.0454537899654630  0.4214256689021679
  0.9772747729006657  0.8636356081472812  0.4214256689021677
  0.1136384092643021  0.6818174263290996  0.4214256689021679
  0.2500020456279385  0.4999992445109176  0.4214256689021679
  0.3863656819915748  0.3181810626927358  0.4214256689021679
  0.5227293183552113  0.1363628808745540  0.4214256689021679
  0.1590929547188474  0.9545446990563724  0.4214256689021679
  0.2954565910824839  0.7727265172381905  0.4214256689021679
  0.4318202274461204  0.5909083354200085  0.4214256689021679
  0.5681838638097565  0.4090901536018267  0.4214256689021679
  0.7045475001733931  0.2272719717836449  0.4214256689021679
  0.4772747729006656  0.8636356081472814  0.4214256689021679
  0.6136384092643021  0.6818174263290996  0.4214256689021679
  0.3863652522833399  0.8181808954763579  0.3798624439786150
  0.5227288886469761  0.6363627136581762  0.3798624439786150
  0.6590925250106127  0.4545445318399944  0.3798624439786150
  0.5681834341015219  0.9090899863854488  0.3798624439786150
  0.5909107000012259  0.0454541561455584  0.3798623448400963
  0.7272743363648624  0.8636359743273767  0.3798623448400962
  0.8409111365370294  0.0454537899654631  0.3382995868403474
  0.8863656819915747  0.3181810626927358  0.3382995868403476
  0.0227293183552112  0.1363628808745540  0.3382995868403476
  0.9318202274461200  0.5909083354200084  0.3382995868403476
  0.0681838638097566  0.4090901536018268  0.3382995868403475
  0.2045475001733931  0.2272719717836449  0.3382995868403475
  0.3409111365370294  0.0454537899654630  0.3382995868403475
  0.9772747729006657  0.8636356081472812  0.3382995868403475
  0.1136384092643021  0.6818174263290996  0.3382995868403474
  0.2500020456279385  0.4999992445109176  0.3382995868403475
  0.3863656819915748  0.3181810626927358  0.3382995868403475
  0.5227293183552113  0.1363628808745540  0.3382995868403475
  0.1590929547188474  0.9545446990563724  0.3382995868403476
  0.2954565910824839  0.7727265172381905  0.3382995868403476
  0.4318202274461204  0.5909083354200085  0.3382995868403476
  0.6818197909103172  0.5909087016001039  0.3798623448400963
  0.1590925250106123  0.4545445318399942  0.2136102798549740
  0.5454561545466805  0.7727268834182858  0.3798623448400965
  0.6363652454557714  0.3181814288728311  0.3798623448400963
  0.7045470704651579  0.7272718045672671  0.3798624439786150
  0.7727288818194080  0.1363632470546493  0.3798623448400963
  0.8181834272739533  0.4090905197819220  0.3798623448400963
  0.9545470636375896  0.2272723379637402  0.3798623448400963
  0.8636379727284990  0.6818177925091946  0.3798623448400965
  0.0000016090921351  0.4999996106910129  0.3798623448400963
  0.1363652454557715  0.3181814288728311  0.3798623448400963
  0.2727288818194079  0.1363632470546493  0.3798623448400963
  0.9090925181830443  0.9545450652364675  0.3798623448400962
  0.0454561545466806  0.7727268834182858  0.3798623448400963
  0.1818197909103171  0.5909087016001040  0.3798623448400963
  0.3181834272739534  0.4090905197819220  0.3798623448400963
  0.4545470636375897  0.2272723379637402  0.3798623448400963
  0.0909107000012262  0.0454541561455586  0.3798623448400963
  0.2272743363648626  0.8636359743273767  0.3798623448400963
  0.3636379727284990  0.6818177925091948  0.3798623448400963
  0.5000016090921353  0.4999996106910130  0.3798623448400963
  0.4090925181830443  0.9545450652364675  0.3798623448400965
  0.2954561613742488  0.2727263500218123  0.2136102798549740
  0.8409111365370294  0.0454537899654631  0.4214256689021679
  0.0681834341015216  0.9090899863854490  0.2136102798549739
  0.8863656819915747  0.3181810626927358  0.4214256689021679
  0.5909107000012259  0.0454541561455584  0.2136101807164555
  0.6818197909103172  0.5909087016001039  0.2136101807164555
  0.5454561545466805  0.7727268834182858  0.2136101807164555
  0.4090925181830443  0.9545450652364675  0.2136101807164555
  0.6363652454557714  0.3181814288728311  0.2136101807164554
  0.5000016090921353  0.4999996106910130  0.2136101807164554
  0.3636379727284990  0.6818177925091948  0.2136101807164555
  0.2272743363648626  0.8636359743273767  0.2136101807164555
  0.0909107000012262  0.0454541561455586  0.2136101807164555
  0.4545470636375897  0.2272723379637402  0.2136101807164555
  0.3181834272739534  0.4090905197819220  0.2136101807164555
  0.1818197909103171  0.5909087016001040  0.2136101807164554
  0.0454561545466806  0.7727268834182858  0.2136101807164554
  0.9090925181830443  0.9545450652364675  0.2136101807164555
  0.7272743363648624  0.8636359743273767  0.2136101807164555
  0.1363652454557715  0.3181814288728311  0.2136101807164555
  0.2045470704651579  0.7272718045672669  0.2136102798549740
  0.3409107068287942  0.5454536227490850  0.2136102798549740
  0.4772743431924306  0.3636354409309033  0.2136102798549740
  0.6136379795560670  0.1818172591127214  0.2136102798549740
  0.2727288818194079  0.1363632470546493  0.2136101807164555
  0.5227288886469761  0.6363627136581762  0.2136102798549741
  0.6590925250106127  0.4545445318399944  0.2136102798549740
  0.3863652522833399  0.8181808954763579  0.2136102798549741
  0.7045470704651579  0.7272718045672671  0.2136102798549741
  0.7727288818194080  0.1363632470546493  0.2136101807164554
  0.8181834272739533  0.4090905197819220  0.2136101807164555
  0.9545470636375896  0.2272723379637402  0.2136101807164555
  0.8636379727284990  0.6818177925091946  0.2136101807164555
  0.0000016090921351  0.4999996106910129  0.2136101807164555
  0.5681834341015219  0.9090899863854488  0.2136102798549741
  0.4545468232772690  0.7272722674601992  0.4214255348728254
  0.5909104596409056  0.5454540856420174  0.4214255348728254
  0.5000013687318146  0.9999995401874719  0.4214255348728253
  0.6363650050954507  0.8181813583692902  0.4214255348728253
  0.6818195505499959  0.0909086310965627  0.3382994528110049
  0.9545468232772687  0.7272722674601991  0.3382994528110049
  0.8636377323681778  0.1818177220056536  0.3382994528110049
  0.7727286414590868  0.6363631765511082  0.3382994528110049
  0.9090922778227236  0.4545449947329264  0.3382994528110049
  0.0454559141863598  0.2727268129147446  0.3382994528110049
  0.1818195505499962  0.0909086310965627  0.3382994528110049
  0.8181831869136323  0.9090904492783810  0.3382994528110049
  0.7272740960045417  0.3636359038238355  0.3382994528110049
  0.3181831869136326  0.9090904492783810  0.4214255348728253
  0.2272740960045415  0.3636359038238354  0.4214255348728254
  0.4090922778227233  0.4545449947329264  0.4214255348728254
  0.2727286414590871  0.6363631765511082  0.4214255348728254
  0.1363650050954505  0.8181813583692898  0.4214255348728254
  0.0000013687318145  0.9999995401874721  0.4214255348728254
  0.3636377323681778  0.1818177220056536  0.4214255348728254
  0.0909104596409052  0.5454540856420173  0.4214255348728254
  0.9545468232772687  0.7272722674601991  0.4214255348728251
  0.8181831869136323  0.9090904492783810  0.4214255348728251
  0.1818195505499962  0.0909086310965627  0.4214255348728254
  0.0454559141863598  0.2727268129147446  0.4214255348728254
  0.9090922778227236  0.4545449947329264  0.4214255348728253
  0.7727286414590868  0.6363631765511082  0.4214255348728253
  0.8636377323681778  0.1818177220056536  0.4214255348728254
  0.0909104596409052  0.5454540856420173  0.3382994528110049
  0.5454559141863596  0.2727268129147445  0.4214255348728254
  0.2272740960045415  0.3636359038238354  0.3382994528110049
  0.9090922778227236  0.4545449947329264  0.2551733707491845
  0.0000013687318145  0.9999995401874721  0.3382994528110049
  0.5000013687318146  0.9999995401874719  0.2551733707491845
  0.5909104596409056  0.5454540856420174  0.2551733707491844
  0.4545468232772690  0.7272722674601992  0.2551733707491844
  0.3181831869136326  0.9090904492783810  0.2551733707491845
  0.5454559141863596  0.2727268129147445  0.2551733707491843
  0.4090922778227233  0.4545449947329264  0.2551733707491843
  0.2727286414590871  0.6363631765511082  0.2551733707491843
  0.1363650050954505  0.8181813583692898  0.2551733707491843
  0.0000013687318145  0.9999995401874721  0.2551733707491843
  0.3636377323681778  0.1818177220056536  0.2551733707491845
  0.2272740960045415  0.3636359038238354  0.2551733707491845
  0.0909104596409052  0.5454540856420173  0.2551733707491845
  0.9545468232772687  0.7272722674601991  0.2551733707491845
  0.8181831869136323  0.9090904492783810  0.2551733707491845
  0.3636377323681778  0.1818177220056536  0.3382994528110049
  0.1818195505499962  0.0909086310965627  0.2551733707491845
  0.7272740960045417  0.3636359038238355  0.4214255348728254
  0.7727286414590868  0.6363631765511082  0.2551733707491845
  0.8636377323681778  0.1818177220056536  0.2551733707491843
  0.7272740960045417  0.3636359038238355  0.2551733707491843
  0.6818195505499959  0.0909086310965627  0.2551733707491845
  0.6363650050954507  0.8181813583692902  0.3382994528110049
  0.5000013687318146  0.9999995401874719  0.3382994528110049
  0.5909104596409056  0.5454540856420174  0.3382994528110049
  0.4545468232772690  0.7272722674601992  0.3382994528110049
  0.3181831869136326  0.9090904492783810  0.3382994528110049
  0.5454559141863596  0.2727268129147445  0.3382994528110047
  0.4090922778227233  0.4545449947329264  0.3382994528110048
  0.2727286414590871  0.6363631765511082  0.3382994528110048
  0.1363650050954505  0.8181813583692898  0.3382994528110049
  0.0454559141863598  0.2727268129147446  0.2551733707491845
  0.6818195505499959  0.0909086310965627  0.4214255348728254
  0.6363650050954507  0.8181813583692902  0.2551733707491845
  0.6590931583895216  0.9545448212270773  0.2136099517789457
  0.3409113402077036  0.0454539121361682  0.2967360338407661
  0.2045477038440674  0.2272720939543500  0.2967360338407661
  0.0681840674804310  0.4090902757725318  0.2967360338407661
  0.9318204311167945  0.5909084575907135  0.2967360338407661
  0.0227295220258856  0.1363630030452591  0.2967360338407661
  0.8863658856622494  0.3181811848634410  0.2967360338407661
  0.8409113402077039  0.0454539121361682  0.2967360338407661
  0.7954567947531580  0.7727266394088954  0.3798621159025864
  0.6590931583895216  0.9545448212270773  0.3798621159025863
  0.7500022492986130  0.4999993666816228  0.3798621159025865
  0.6136386129349767  0.6818175484998048  0.3798621159025866
  0.4772749765713403  0.8636357303179866  0.3798621159025866
  0.7045477038440671  0.2272720939543500  0.3798621159025865
  0.5681840674804313  0.4090902757725319  0.3798621159025865
  0.4318204311167949  0.5909084575907138  0.3798621159025865
  0.2954567947531585  0.7727266394088955  0.3798621159025865
  0.1590931583895221  0.9545448212270773  0.3798621159025865
  0.5227295220258857  0.1363630030452591  0.3798621159025865
  0.3863658856622493  0.3181811848634409  0.3798621159025865
  0.2500022492986129  0.4999993666816228  0.3798621159025865
  0.1136386129349765  0.6818175484998046  0.3798621159025865
  0.9772749765713401  0.8636357303179865  0.3798621159025863
  0.3409113402077036  0.0454539121361682  0.3798621159025866
  0.2045477038440674  0.2272720939543500  0.3798621159025866
  0.0681840674804310  0.4090902757725318  0.3798621159025865
  0.9318204311167945  0.5909084575907135  0.3798621159025866
  0.0227295220258856  0.1363630030452591  0.3798621159025866
  0.8863658856622494  0.3181811848634410  0.3798621159025865
  0.8409113402077039  0.0454539121361682  0.3798621159025865
  0.9772749765713401  0.8636357303179865  0.2967360338407661
  0.1136386129349765  0.6818175484998046  0.2967360338407661
  0.2500022492986129  0.4999993666816228  0.2967360338407661
  0.3863658856622493  0.3181811848634409  0.2967360338407661
  0.7500022492986130  0.4999993666816228  0.2136099517789457
  0.6136386129349767  0.6818175484998048  0.2136099517789457
  0.4772749765713403  0.8636357303179866  0.2136099517789457
  0.7045477038440671  0.2272720939543500  0.2136099517789455
  0.5681840674804313  0.4090902757725319  0.2136099517789455
  0.4318204311167949  0.5909084575907138  0.2136099517789455
  0.2954567947531585  0.7727266394088955  0.2136099517789457
  0.1590931583895221  0.9545448212270773  0.2136099517789457
  0.5227295220258857  0.1363630030452591  0.2136099517789457
  0.3863658856622493  0.3181811848634409  0.2136099517789457
  0.2500022492986129  0.4999993666816228  0.2136099517789457
  0.1136386129349765  0.6818175484998046  0.2136099517789455
  0.9772749765713401  0.8636357303179865  0.2136099517789456
  0.2045477038440674  0.2272720939543500  0.2136099517789456
  0.7954567947531580  0.7727266394088954  0.2136099517789457
  0.0681840674804310  0.4090902757725318  0.2136099517789456
  0.0227295220258856  0.1363630030452591  0.2136099517789456
  0.8863658856622494  0.3181811848634410  0.2136099517789457
  0.8409113402077039  0.0454539121361682  0.2136099517789455
  0.7954567947531580  0.7727266394088954  0.2967360338407661
  0.6590931583895216  0.9545448212270773  0.2967360338407661
  0.7500022492986130  0.4999993666816228  0.2967360338407661
  0.6136386129349767  0.6818175484998048  0.2967360338407661
  0.4772749765713403  0.8636357303179866  0.2967360338407661
  0.7045477038440671  0.2272720939543500  0.2967360338407661
  0.5681840674804313  0.4090902757725319  0.2967360338407661
  0.4318204311167949  0.5909084575907138  0.2967360338407661
  0.2954567947531585  0.7727266394088955  0.2967360338407661
  0.1590931583895221  0.9545448212270773  0.2967360338407661
  0.5227295220258857  0.1363630030452591  0.2967360338407661
  0.9318204311167945  0.5909084575907135  0.2136099517789457
  0.3409113402077036  0.0454539121361682  0.2136099517789456
